                                        
   1.00000000000000     
     4.4478200000000001    0.0000000000000000    0.0000000000000000
     0.0000000000000000    8.8956300000000006    0.0000000000000000
     0.0000000000000000    0.0000000000000000   28.8069999999999986
   Mn   H    O    Zn   S 
    16    23    31     1     1
Direct
  0.5077171799779600 -0.0090921524357701  0.2407291872607743
  0.0407363651328846  0.2248137448841959  0.2413004562926954
 -0.0000364944693543 -0.0141956371687246  0.1641518663049117
  0.4707344106068285  0.2553191081261935  0.1655816446029689
  0.4874453082889896 -0.0038503323599549  0.0896322617724767
 -0.0232102432721492  0.2461222896753065  0.0826219568232382
 -0.0213246409761479 -0.0064147763200647  0.0103892729761000
  0.4894145026809361  0.2185368304458906  0.0058459270560329
  0.6288147994385137  0.4545724607933920  0.2662451297912679
 -0.0312772516250737  0.7249075791738606  0.2364403664966189
 -0.0195398596254212  0.4823270587019790  0.1575744026111506
  0.4721662201614128  0.7181854739879793  0.1634331477656492
  0.5009549773272637  0.5646045334327555  0.0638886424611567
 -0.0402167038481008  0.7514278151244418  0.0640929459082013
  0.0590329503878237  0.4735518752272427 -0.0013884035443091
  0.4202992979668724  0.8352472198249513 -0.0153524709303412
  1.1580538721128710  0.9315501261998896  0.4200928630126059
 -0.6612515408550624  0.8910254017364013  0.3054106802887105
 -0.1521060146817127  1.0435680593824124  0.4072913585813064
  0.4341667563537787 -0.0755385087725322  0.6473480709280720
  1.0913101023871212  1.2650083530026293  0.4884909115021080
  0.9273995856033936  1.6134077039162869  0.7432104399225261
  1.1890625006987510  1.1111842767506594  0.7932998669780453
 -0.5416859336497066  0.5973233860510624  0.7715237571517439
  0.6977144814487855  0.0195308354555507  0.4719162343357912
  1.1395690510040468  0.4422454893933996  0.9340517460386334
  1.7471482392284876 -0.0507831004332689  0.4933743154060154
  0.9023142704067552  0.6811218811239418  0.7267452403519589
  0.0957178131165468  0.9251548575052925  0.9598927750603811
  2.1807808154407398  0.1796443954249894  0.5359254120408528
  0.5006125528978790  0.1484046377440079  0.4398605485235276
  1.1352679326213140  0.6398685434801836  0.6224494578903962
  0.8513842627338841  0.7071652608431719  0.6054649570675869
  0.3236264679153206  0.5511229607722579  0.4472018463697132
 -0.2487273478837779  0.5714687380583506  0.4744001723562095
  0.1485897995226662  0.6445081753908519  0.3108141668531205
  0.9272187495063844  0.7219827428268424  0.4600151081701930
  0.1255721439165268  1.0615104899609571  0.7743862786394776
  0.5817496831949428  0.4531845622398308  0.4291082653701785
  0.0309141271720133  0.0078213503096647  0.2327593230658522
  0.5340626210361782  0.2507577584934011  0.2321842996533321
  0.5112913039817634  0.0306375362138940  0.1576489781353376
 -0.0138663241724860  0.2445855572877123  0.1580220950908994
  0.0273260355543309 -0.0165385561291062  0.0804845020361360
  0.4736290712247817  0.2176343368300857  0.0770101769179241
  0.5479709352690448  0.0041672216013797  0.0180796439054158
  0.0106945927641059  0.2232754312063029  0.0088133156459097
 -0.0515607454870418  0.5131453837027848  0.2215618021552486
  0.5531446781151302  0.7693746927114813  0.2256925465889266
  0.4691331914425491  0.5038419819442829  0.1403666930876265
  0.0434160939892673  0.7547566892755033  0.1670583403345359
 -0.0591803304965584  0.4556407905378065  0.0780115562022916
  0.5583483040274058  0.7681454067057851  0.0994175006773829
  0.5195939453896509  0.4295067442533036  0.0026317303543134
  0.2029185528793375  0.6781787700211569  0.0168151303024784
  0.0580418396355035  0.7393746413602923  0.2990463290148334
  0.6019336249004871  1.1311179110406999  0.4060349743021455
  1.0675425587761576  0.7471425422549914  0.6143242019996171
  1.6004486010774646  0.4275732985121674  0.5953484687211634
 -0.5237484482325749 -0.0841074458694616  0.6885662834512879
 -0.2766214958075577  0.3463093524000208  0.5705902424613940
  0.2552331176592312  0.2222218947477759  0.5056868229967276
  0.6988676805454545  0.9933259501235171  0.6996230587463848
  0.0081230618202206  0.6326671034252689  0.4781587439291292
  0.0378417464143097  0.9799059945456909  0.3959561974178883
  0.4927870670806203  0.5111742299808821  0.4576133848429275
 -0.0543256929286970  0.4023685661041004  0.3738116564593448
  0.0575422376187817  0.2180778084804064  0.3137124934163067
  0.3298663818110586  0.4596918671766963  0.3134527318072423
  0.4855179719811072 -0.0394798194768521  0.3050894356923731
  0.3378239971181084  0.1022484928513857  0.3539684069347400
  0.0057389648476012  0.3873982321657045  0.3251427485944989
 
  0.12340478E-03  0.11017819E-02  0.10004175E-02
 -0.57933553E-03 -0.46113854E-02  0.66476035E-03
 -0.75008367E-03 -0.46133362E-03  0.18848510E-03
 -0.16479949E-02  0.73524530E-03  0.55349064E-03
  0.65037706E-03 -0.14449017E-03 -0.70544312E-03
 -0.47039841E-03 -0.37817872E-03 -0.12742492E-02
  0.24086412E-02 -0.14330868E-02  0.60291375E-03
  0.17826321E-02 -0.24476876E-02  0.82538685E-03
 -0.52198793E-03  0.23443368E-02 -0.30334517E-03
 -0.99424596E-03 -0.35284634E-03 -0.65797761E-03
 -0.45331964E-04  0.13763002E-02 -0.66941441E-03
 -0.22719326E-03 -0.32814725E-03 -0.12717943E-02
  0.15970625E-03  0.33888069E-02  0.39857756E-02
  0.46699664E-03 -0.13008806E-02  0.19854798E-02
  0.45769444E-03 -0.79621633E-03 -0.64345093E-02
  0.19813120E-02 -0.55832774E-03 -0.37139499E-02
  0.20953330E-02  0.36526982E-02 -0.41440238E-02
 -0.27541731E-01 -0.18932189E-01 -0.45957467E-01
  0.50892932E-03  0.76798058E-02  0.10415430E-01
  0.79866732E-04  0.10413135E-01  0.94810772E-01
 -0.41174088E-01 -0.30501417E-01  0.12647232E-01
 -0.12095751E-02  0.20362663E-01 -0.57315448E-02
 -0.40415480E-03  0.11908517E-03 -0.22307336E-02
 -0.38164987E-01  0.88719040E-01  0.49771770E-01
 -0.13225434E-01  0.30874111E-01 -0.34849798E-01
  0.39639344E-01 -0.81535287E-01 -0.24041884E-02
  0.22678255E-01 -0.51944704E-01  0.37378302E-01
  0.59189970E-02 -0.38454381E-02 -0.11362495E-01
 -0.27516859E-01  0.98440825E-02 -0.36675599E-01
 -0.20153949E-01  0.10501790E-01 -0.28619160E-01
  0.26369714E-01 -0.31426916E-01 -0.25834494E-01
  0.13214811E+00 -0.64794397E-01  0.41261260E-01
 -0.44907393E-01  0.67310142E-01 -0.33819741E-01
 -0.29414426E-01  0.77811456E-01  0.10860648E-01
  0.63580873E-02  0.46828061E-01 -0.65311285E-01
  0.70801930E-02 -0.18879035E-01  0.20532159E-01
  0.11373652E-01 -0.22935916E-01  0.79114470E-02
 -0.64279680E-02 -0.30010403E-02  0.38633791E-03
  0.16243434E-02 -0.16798080E-01 -0.29221788E-01
 -0.68151307E-03  0.12812002E-02  0.37991159E-02
  0.34435436E-03  0.60894885E-02  0.14026323E-02
 -0.15874243E-02 -0.12307281E-03  0.21055688E-02
  0.15981167E-03  0.20193907E-02  0.48818043E-03
  0.19647695E-02 -0.25159836E-02 -0.44890009E-03
  0.12790808E-03 -0.32633850E-02  0.15832552E-03
  0.18004775E-02 -0.53629581E-02 -0.24355634E-02
  0.98509280E-03 -0.28343634E-02  0.34027213E-02
 -0.38400165E-02  0.99679017E-03  0.61252860E-02
 -0.14443579E-02  0.27533281E-02  0.60064602E-02
 -0.29100288E-02  0.33894254E-02  0.88083808E-03
 -0.50664702E-03  0.36531406E-02  0.26610089E-02
  0.64090189E-03 -0.13147502E-02  0.30802910E-02
  0.15941786E-02 -0.15582508E-02 -0.36521312E-02
 -0.31836974E-02 -0.47847208E-03  0.54933462E-02
  0.29040691E-02  0.90527664E-02  0.48447342E-04
 -0.68678472E-03  0.20417582E-02 -0.27844982E-02
  0.55271830E-02 -0.39299003E-02 -0.50730107E-02
  0.46071111E-02  0.11169452E-01  0.10232248E-02
  0.81584643E-03 -0.93339944E-02 -0.24970834E-02
 -0.20163692E-01 -0.18575088E-01 -0.11811689E-01
 -0.53705443E-02 -0.24179721E-02  0.25646862E-02
  0.59577450E-02  0.14589828E-02 -0.19573518E-02
  0.16228708E-01  0.17265843E-01  0.24492936E-02
 -0.29140510E-02  0.31889480E-02  0.25245562E-02
 -0.18173772E-02  0.36577855E-02 -0.42452484E-02
  0.22964506E-02 -0.11117662E-01 -0.21945721E-02
  0.19763244E-02  0.47079658E-02  0.17811731E-02
 -0.55840258E-03  0.52033009E-02 -0.57898353E-02
 -0.16573161E-02 -0.28670688E-03  0.84076722E-03
  0.13406103E-02  0.18366040E-03  0.79949386E-02
 -0.19907945E-02 -0.61706455E-03  0.24456275E-02
 -0.18792052E-02 -0.52348722E-03 -0.74202010E-03
 
           1
   1.00000000000000     
  0.16953621E+02  0.28664907E-01  0.31919538E-01  0.16923329E+02
  0.50774492E+00  0.99103170E+00  0.24076392E+00
  0.40606114E-01  0.22429536E+00  0.24132353E+00
  0.99979486E+00  0.98575250E+00  0.16415841E+00
  0.47036389E+00  0.25540176E+00  0.16560086E+00
  0.48759153E+00  0.99613342E+00  0.89607773E-01
  0.97668400E+00  0.24607978E+00  0.82577723E-01
  0.97921689E+00  0.99342412E+00  0.10410202E-01
  0.48981529E+00  0.21826167E+00  0.58745794E-02
  0.62869744E+00  0.45483600E+00  0.26623460E+00
  0.96849921E+00  0.72486791E+00  0.23641753E+00
  0.98044995E+00  0.48248178E+00  0.15755116E+00
  0.47211514E+00  0.71814859E+00  0.16338900E+00
  0.50099088E+00  0.56498549E+00  0.64027004E-01
  0.95988829E+00  0.75128158E+00  0.64161869E-01
  0.59135853E-01  0.47346237E+00  0.99838823E+00
  0.42074475E+00  0.83518446E+00  0.98451860E+00
  0.15852496E+00  0.93196074E+00  0.41994901E+00
  0.33255627E+00  0.88889714E+00  0.30381532E+00
  0.84800841E+00  0.44431383E-01  0.40765292E+00
  0.43418471E+00  0.92563208E+00  0.65063931E+00
  0.82052963E-01  0.26157954E+00  0.48892994E+00
  0.92712764E+00  0.61569677E+00  0.74301148E+00
  0.18897163E+00  0.11119766E+00  0.79322243E+00
  0.44973346E+00  0.60729671E+00  0.77325152E+00
  0.69474102E+00  0.23001541E-01  0.47070647E+00
  0.14848113E+00  0.43307972E+00  0.93396829E+00
  0.75224697E+00  0.94337755E+00  0.49467186E+00
  0.90364503E+00  0.68068960E+00  0.72635081E+00
  0.89531219E-01  0.92626148E+00  0.95861963E+00
  0.17624962E+00  0.18082495E+00  0.53493193E+00
  0.50654124E+00  0.14487179E+00  0.43896374E+00
  0.16497869E+00  0.63258470E+00  0.62388179E+00
  0.84128777E+00  0.71473191E+00  0.60429095E+00
  0.31701324E+00  0.55987012E+00  0.44757886E+00
  0.75270214E+00  0.57673290E+00  0.47213297E+00
  0.15018163E+00  0.64238589E+00  0.31152692E+00
  0.92977588E+00  0.71940441E+00  0.46028974E+00
  0.12412695E+00  0.61173129E-01  0.77439969E+00
  0.58211488E+00  0.45129621E+00  0.42809387E+00
  0.30760903E-01  0.79653761E-02  0.23289120E+00
  0.53414004E+00  0.25144231E+00  0.23223299E+00
  0.51093440E+00  0.30623701E-01  0.15772207E+00
  0.98616961E+00  0.24481257E+00  0.15803904E+00
  0.27767773E-01  0.98317861E+00  0.80468919E-01
  0.47365783E+00  0.21726748E+00  0.77015673E-01
  0.54837574E+00  0.35643460E-02  0.17995096E-01
  0.10916070E-01  0.22295681E+00  0.89314370E-02
  0.94757591E+00  0.51325744E+00  0.22177443E+00
  0.55281994E+00  0.76968421E+00  0.22590105E+00
  0.46847893E+00  0.50422300E+00  0.14039727E+00
  0.43302185E-01  0.75516736E+00  0.16715071E+00
  0.94096376E+00  0.45549299E+00  0.78118485E-01
  0.55870672E+00  0.76797024E+00  0.99290721E-01
  0.51887816E+00  0.42945296E+00  0.28224252E-02
  0.20357147E+00  0.67919643E+00  0.16816812E-01
  0.57887430E-01  0.73960417E+00  0.29894967E+00
  0.60317630E+00  0.13067613E+00  0.40585887E+00
  0.68578372E-01  0.74839815E+00  0.61435972E+00
  0.60063203E+00  0.42652402E+00  0.59526179E+00
  0.47171816E+00  0.91380444E+00  0.68815626E+00
  0.72217105E+00  0.34603754E+00  0.57067927E+00
  0.25657259E+00  0.22238591E+00  0.50561888E+00
  0.70251637E+00  0.99526689E+00  0.69970808E+00
  0.74678979E-02  0.63302559E+00  0.47824638E+00
  0.37433147E-01  0.98031718E+00  0.39580883E+00
  0.49330338E+00  0.50992444E+00  0.45753720E+00
  0.94611864E+00  0.40289781E+00  0.37387349E+00
  0.57416692E-01  0.21866274E+00  0.31351151E+00
  0.32949377E+00  0.45965964E+00  0.31348192E+00
  0.48581938E+00  0.96054083E+00  0.30536697E+00
  0.33737641E+00  0.10217913E+00  0.35405330E+00
  0.53164646E-02  0.38733938E+00  0.32511699E+00
  0.00000000E+00  0.00000000E+00  0.00000000E+00
  0.00000000E+00  0.00000000E+00  0.00000000E+00
  0.00000000E+00  0.00000000E+00  0.00000000E+00
  0.00000000E+00  0.00000000E+00  0.00000000E+00
  0.00000000E+00  0.00000000E+00  0.00000000E+00
  0.00000000E+00  0.00000000E+00  0.00000000E+00
  0.00000000E+00  0.00000000E+00  0.00000000E+00
  0.00000000E+00  0.00000000E+00  0.00000000E+00
  0.00000000E+00  0.00000000E+00  0.00000000E+00
  0.00000000E+00  0.00000000E+00  0.00000000E+00
  0.00000000E+00  0.00000000E+00  0.00000000E+00
  0.00000000E+00  0.00000000E+00  0.00000000E+00
  0.00000000E+00  0.00000000E+00  0.00000000E+00
  0.00000000E+00  0.00000000E+00  0.00000000E+00
  0.00000000E+00  0.00000000E+00  0.00000000E+00
  0.00000000E+00  0.00000000E+00  0.00000000E+00
  0.00000000E+00  0.00000000E+00  0.00000000E+00
  0.00000000E+00  0.00000000E+00  0.00000000E+00
  0.00000000E+00  0.00000000E+00  0.00000000E+00
  0.00000000E+00  0.00000000E+00  0.00000000E+00
  0.00000000E+00  0.00000000E+00  0.00000000E+00
  0.00000000E+00  0.00000000E+00  0.00000000E+00
  0.00000000E+00  0.00000000E+00  0.00000000E+00
  0.00000000E+00  0.00000000E+00  0.00000000E+00
  0.00000000E+00  0.00000000E+00  0.00000000E+00
  0.00000000E+00  0.00000000E+00  0.00000000E+00
  0.00000000E+00  0.00000000E+00  0.00000000E+00
  0.00000000E+00  0.00000000E+00  0.00000000E+00
  0.00000000E+00  0.00000000E+00  0.00000000E+00
  0.00000000E+00  0.00000000E+00  0.00000000E+00
  0.00000000E+00  0.00000000E+00  0.00000000E+00
  0.00000000E+00  0.00000000E+00  0.00000000E+00
  0.00000000E+00  0.00000000E+00  0.00000000E+00
  0.00000000E+00  0.00000000E+00  0.00000000E+00
  0.00000000E+00  0.00000000E+00  0.00000000E+00
  0.00000000E+00  0.00000000E+00  0.00000000E+00
  0.00000000E+00  0.00000000E+00  0.00000000E+00
  0.00000000E+00  0.00000000E+00  0.00000000E+00
  0.00000000E+00  0.00000000E+00  0.00000000E+00
  0.00000000E+00  0.00000000E+00  0.00000000E+00
  0.00000000E+00  0.00000000E+00  0.00000000E+00
  0.00000000E+00  0.00000000E+00  0.00000000E+00
  0.00000000E+00  0.00000000E+00  0.00000000E+00
  0.00000000E+00  0.00000000E+00  0.00000000E+00
  0.00000000E+00  0.00000000E+00  0.00000000E+00
  0.00000000E+00  0.00000000E+00  0.00000000E+00
  0.00000000E+00  0.00000000E+00  0.00000000E+00
  0.00000000E+00  0.00000000E+00  0.00000000E+00
  0.00000000E+00  0.00000000E+00  0.00000000E+00
  0.00000000E+00  0.00000000E+00  0.00000000E+00
  0.00000000E+00  0.00000000E+00  0.00000000E+00
  0.00000000E+00  0.00000000E+00  0.00000000E+00
  0.00000000E+00  0.00000000E+00  0.00000000E+00
  0.00000000E+00  0.00000000E+00  0.00000000E+00
  0.00000000E+00  0.00000000E+00  0.00000000E+00
  0.00000000E+00  0.00000000E+00  0.00000000E+00
  0.00000000E+00  0.00000000E+00  0.00000000E+00
  0.00000000E+00  0.00000000E+00  0.00000000E+00
  0.00000000E+00  0.00000000E+00  0.00000000E+00
  0.00000000E+00  0.00000000E+00  0.00000000E+00
  0.00000000E+00  0.00000000E+00  0.00000000E+00
  0.00000000E+00  0.00000000E+00  0.00000000E+00
  0.00000000E+00  0.00000000E+00  0.00000000E+00
  0.00000000E+00  0.00000000E+00  0.00000000E+00
  0.00000000E+00  0.00000000E+00  0.00000000E+00
  0.00000000E+00  0.00000000E+00  0.00000000E+00
  0.00000000E+00  0.00000000E+00  0.00000000E+00
  0.00000000E+00  0.00000000E+00  0.00000000E+00
  0.00000000E+00  0.00000000E+00  0.00000000E+00
  0.00000000E+00  0.00000000E+00  0.00000000E+00
  0.00000000E+00  0.00000000E+00  0.00000000E+00
  0.00000000E+00  0.00000000E+00  0.00000000E+00
  0.00000000E+00  0.00000000E+00  0.00000000E+00
  0.00000000E+00  0.00000000E+00  0.00000000E+00
  0.00000000E+00  0.00000000E+00  0.00000000E+00
  0.00000000E+00  0.00000000E+00  0.00000000E+00
  0.00000000E+00  0.00000000E+00  0.00000000E+00
  0.00000000E+00  0.00000000E+00  0.00000000E+00
  0.00000000E+00  0.00000000E+00  0.00000000E+00
  0.00000000E+00  0.00000000E+00  0.00000000E+00
  0.00000000E+00  0.00000000E+00  0.00000000E+00
  0.00000000E+00  0.00000000E+00  0.00000000E+00
  0.00000000E+00  0.00000000E+00  0.00000000E+00
  0.00000000E+00  0.00000000E+00  0.00000000E+00
  0.00000000E+00  0.00000000E+00  0.00000000E+00
  0.00000000E+00  0.00000000E+00  0.00000000E+00
  0.00000000E+00  0.00000000E+00  0.00000000E+00
  0.00000000E+00  0.00000000E+00  0.00000000E+00
  0.00000000E+00  0.00000000E+00  0.00000000E+00
  0.00000000E+00  0.00000000E+00  0.00000000E+00
  0.00000000E+00  0.00000000E+00  0.00000000E+00
  0.00000000E+00  0.00000000E+00  0.00000000E+00
  0.00000000E+00  0.00000000E+00  0.00000000E+00
  0.00000000E+00  0.00000000E+00  0.00000000E+00
  0.00000000E+00  0.00000000E+00  0.00000000E+00
  0.00000000E+00  0.00000000E+00  0.00000000E+00
  0.00000000E+00  0.00000000E+00  0.00000000E+00
  0.00000000E+00  0.00000000E+00  0.00000000E+00
  0.00000000E+00  0.00000000E+00  0.00000000E+00
  0.00000000E+00  0.00000000E+00  0.00000000E+00
  0.00000000E+00  0.00000000E+00  0.00000000E+00
  0.00000000E+00  0.00000000E+00  0.00000000E+00
  0.00000000E+00  0.00000000E+00  0.00000000E+00
  0.00000000E+00  0.00000000E+00  0.00000000E+00
  0.00000000E+00  0.00000000E+00  0.00000000E+00
  0.00000000E+00  0.00000000E+00  0.00000000E+00
  0.00000000E+00  0.00000000E+00  0.00000000E+00
  0.00000000E+00  0.00000000E+00  0.00000000E+00
  0.00000000E+00  0.00000000E+00  0.00000000E+00
  0.00000000E+00  0.00000000E+00  0.00000000E+00
  0.00000000E+00  0.00000000E+00  0.00000000E+00
  0.00000000E+00  0.00000000E+00  0.00000000E+00
  0.00000000E+00  0.00000000E+00  0.00000000E+00
  0.00000000E+00  0.00000000E+00  0.00000000E+00
  0.00000000E+00  0.00000000E+00  0.00000000E+00
  0.00000000E+00  0.00000000E+00  0.00000000E+00
  0.00000000E+00  0.00000000E+00  0.00000000E+00
  0.00000000E+00  0.00000000E+00  0.00000000E+00
  0.00000000E+00  0.00000000E+00  0.00000000E+00
  0.00000000E+00  0.00000000E+00  0.00000000E+00
  0.00000000E+00  0.00000000E+00  0.00000000E+00
  0.00000000E+00  0.00000000E+00  0.00000000E+00
  0.00000000E+00  0.00000000E+00  0.00000000E+00
  0.00000000E+00  0.00000000E+00  0.00000000E+00
  0.00000000E+00  0.00000000E+00  0.00000000E+00
  0.00000000E+00  0.00000000E+00  0.00000000E+00
  0.00000000E+00  0.00000000E+00  0.00000000E+00
  0.00000000E+00  0.00000000E+00  0.00000000E+00
  0.00000000E+00  0.00000000E+00  0.00000000E+00
  0.00000000E+00  0.00000000E+00  0.00000000E+00
  0.00000000E+00  0.00000000E+00  0.00000000E+00
  0.00000000E+00  0.00000000E+00  0.00000000E+00
  0.00000000E+00  0.00000000E+00  0.00000000E+00
  0.00000000E+00  0.00000000E+00  0.00000000E+00
  0.00000000E+00  0.00000000E+00  0.00000000E+00
  0.00000000E+00  0.00000000E+00  0.00000000E+00
  0.00000000E+00  0.00000000E+00  0.00000000E+00
  0.00000000E+00  0.00000000E+00  0.00000000E+00
  0.00000000E+00  0.00000000E+00  0.00000000E+00
  0.00000000E+00  0.00000000E+00  0.00000000E+00
  0.00000000E+00  0.00000000E+00  0.00000000E+00
  0.00000000E+00  0.00000000E+00  0.00000000E+00
  0.00000000E+00  0.00000000E+00  0.00000000E+00
  0.00000000E+00  0.00000000E+00  0.00000000E+00
