
1.0
  4.447820   0.000000   0.000000
  0.000000   8.895630   0.000000
  0.000000   0.000000  28.807000
Mn H  O  Zn S
16 23 31 1  1
Cartesian 
    2.223908   0.000000   7.487753 
    0.000000   2.223908   7.487753 
    0.000000   0.000000   5.263846 
    2.223908   2.223908   5.263846 
    2.223908   0.000000   3.039938 
    0.000000   2.223908   3.039938 
    0.000000   0.000000   0.816031 
    2.223908   2.223908   0.816031 
    2.223908   4.447815   7.487753 
    0.000000   6.671723   7.487753 
    0.000000   4.447815   5.263846 
    2.223908   6.671723   5.263846 
    2.223908   4.447815   3.039938 
    0.000000   6.671723   3.039938 
    0.000000   4.447815   0.816031 
    2.223908   6.671723   0.816031 
    2.223908   4.447815   8.487753 
    0.500000   6.071723   9.200000 
    0.500000   7.271723   9.200000 
    5.113364   9.068172  10.801377 
    5.307146   7.670945   9.978552 
    3.187418   8.174354  10.226151 
    3.602755   7.810524  11.763018 
    4.118470   1.007574  12.693658 
    3.096595   2.247299  12.986386 
    6.860340   2.090626  13.754690 
    5.883820   1.265534  14.770794 
    6.089680   4.171357  14.539825 
    4.661397   3.407800  14.330474 
    5.582754   1.603983  10.568926 
    6.999541   2.164109  11.156981 
    6.889245   6.673140  14.578234 
    6.790383   8.268824  14.245286 
    5.226770   5.976962  13.297756 
    4.458381   4.725895  12.582741 
    5.501289   4.513187  10.665093 
    4.444380   5.660164  10.181124 
    6.828846   7.945607  11.534744 
    6.320073   6.396386  11.445842 
    0.000000   0.000000   7.487753 
    2.223908   2.223908   7.487753 
    2.223908   0.000000   5.263846 
    0.000000   2.223908   5.263846 
    0.000000   0.000000   3.039938 
    2.223908   2.223908   3.039938 
    2.223908   0.000000   0.816031 
    0.000000   2.223908   0.816031 
    0.000000   4.447815   7.487753 
    2.223908   6.671723   7.487753 
    2.223908   4.447815   5.263846 
    0.000000   6.671723   5.263846 
    0.000000   4.447815   3.039938 
    2.223908   6.671723   3.039938 
    2.223908   4.447815   0.816031 
    0.000000   6.671723   0.816031 
    0.500000   6.671723   8.487753 
    5.304760   8.668289   9.904953 
    2.964562   8.324213  11.189475 
    4.032800   2.003166  12.733330 
    6.622598   1.183366  14.101784 
    5.097531   4.255324  14.633143 
    6.025651   2.362787  11.046602 
    6.387034   7.517075  14.767109 
    4.529516   5.722415  12.627564 
    4.661605   4.684490  10.149629 
    7.111184   7.002179  11.360546 
    0.250000   3.500000   9.887753 
    0.250000   1.800000   9.887753 
    0.750000   3.500000   8.087753 
    0.750000   1.800000   8.087753 
    2.223908   0.500000   8.987753 
    0.500000   2.723908   8.887753 




