                                        
   1.00000000000000     
    18.1620999999999988    0.0000000000000000    0.0000000000000000
     0.0000000000000000    9.9662000000000006    0.0000000000000000
     0.0000000000000000    0.0000000000000000   25.4631000000000007
   Mn   H    O    Zn   S 
    16    28    42     1     1
Direct
  0.0915811049694523  0.3568211293957591  0.0242562366084065
  0.3407552856693448  0.3392817078367911  0.0335825064730492
 -0.0126591865261998  0.8413282327159847  0.0513943711482489
  0.2212478786702615  0.8492993878175609  0.0463981488015077
  0.1950765927028359  0.1499303892004271  0.0633358701958888
  0.4948230293895037  0.1383835456207125  0.0338330243767894
  0.0923455076016252  0.6550138779340772  0.0350863503331717
  0.3678844784207502  0.6486779957840723  0.0592146469587906
  0.6419877027184986  0.2634438336125323  0.0309726503633996
  0.8880975486211515  0.3563417540243730  0.0999438376299228
  0.5281994567289618  0.8082964908168514  0.0681076373271389
  0.7773331505310576  0.8440461105866248  0.1338060603605897
  0.7842665576972531  0.1369863340704846  0.0737764340320363
  1.0175807765150142  0.1716016135562824  0.0422453554375342
  0.6471947746388733  0.8388748245015181  0.1009220997210126
  0.9071708996951240  0.6216637938300452  0.1420085667568192
  0.0395516003455277 -0.0269082450802174  0.1253689795391287
  0.2720305497635437  0.0048666400108234  0.1290309538472675
  0.0124478441513637  0.4819131673949462  0.0898221148611225
  0.3377339226234939  0.6150875779321713  0.1525254452681620
  0.2030914408800403  0.5001323905945979 -0.0141630733287244
  0.6340789524207419  0.4757311825629875  0.0118000532941834
  0.1946233003226563  1.0221853193752672 -0.0243013734593929
  0.4726373903920738  0.9287496328134958 -0.0131648829104981
  0.5251353789309254  0.0162262277310755  0.1184902509014355
  0.8388113959013787  0.0723006441504866  0.1548945484427060
  0.6627758679090362  1.3580981542153843  0.1723379703608586
  0.9082249869827173  0.6533355043085841  0.2331482300452657
  0.7387979280802058  0.8356869039003593  0.0335871764083237
  0.7841639378452470  0.5556894487205920  0.1025182500491121
  0.8656629634347339  1.0626106633508579  0.0170644612130018
  0.9738604327622230  1.0090793818964983 -0.0339608860241197
  0.4728754780842971  0.4904164740387429  0.1606328257356809
  0.4862007752104280  0.3374779601375102  0.1637411879995235
  0.0550173983898160  0.3998337753030367  0.1717653516671667
  0.0502733028687401  0.4709231785973540  0.2248576030094186
  0.3349871636799847 -0.0726228967739162  0.1971314427130721
  0.3652501239932641 -0.0011581706266249  0.1494252720325670
  0.2989285210160833  0.3012885188970558  0.2202138276751800
  0.2473360699059609  0.2571647713817837  0.1783200078627745
  0.1450445281123331  0.2634112007101657  0.1868994289376031
  0.1506359012078195  0.1585984288492273  0.2279017660085082
  0.9878800554289765  1.2237473500799945  0.2705845787463991
  1.0076784086247308  1.2266620174594798  0.2091722588045975
  0.0222001910522878 -0.0028410442881228  0.0901257473028179
  0.2359374862777312  0.0010819272867206  0.0993017720020177
  0.1091990444514451  0.2340368842199508  0.0727079603569643
  0.4216225166399960  0.2587738099474968  0.0190122707833562
  0.0615962287100342  0.4981158621449730  0.0619740873448914
  0.3591479147145365  0.5714472891781970  0.1224604390259834
  0.1409248632145237  0.7785734438920535  0.0710760384694779
  0.4670879428262224  0.6881945043461045  0.0518808394969497
  0.0291220304407507  0.2745519257176763 -0.0131267088630234
  0.2644276638085931  0.2585297238095948  0.0547459668232712
  0.1527608282400743  0.5124098442173108 -0.0017454603021361
  0.3379498637858302  0.5123115690173132  0.0237989903623350
  0.0292979806570377  0.7432350493172738 -0.0011867728735843
  0.2973276600651019  0.7490155380501053  0.0509615538691365
  0.1816594090073038  1.0043834223984482  0.0121485361150423
  0.4436887596501102  1.0069393054850135 -0.0014462565932435
  0.4979004948303261 -0.0014568604862345  0.0857595316763048
  0.8204840579180070  0.0186743137131786  0.1248238097149197
  0.6987061959547443  0.1347031985119257  0.0547781830879044
  0.9438473468711486  0.2395205477280052  0.0748963864235750
  0.6716795174162369  0.4200718000061391  0.0016125751621060
  0.9483891208124418  0.6169349766261104  0.2109555090494567
  0.6928119278059531  0.8918284786571092  0.1586610083781967
  0.9512656959276113  0.7249353701116615  0.0915643350280299
  0.5782255077961522  0.1637063282366615 -0.0012165194355008
  0.8044096945436648  0.2649968472158207  0.1133513315518241
  0.7621608684992655  0.8889280394472475  0.0611616230073376
  0.8294415148445888  0.5145513752260851  0.1144501620717107
  0.6107799975093514  0.8858291579763570  0.0398908536634543
  0.8465836803617443  0.7530859932721091  0.1621442126915176
  0.8259759595095275  1.1319011166241539  0.0092777125434039
  0.9811753396193018  1.0047905841114977  0.0038655171061621
  0.6410117213731780  0.2708424657679674  0.1590428175100050
  0.9626259877144623  0.4615175455911612  0.1226254231225446
  0.5224747629819917  0.2688444339281502  0.1148466542796380
  0.5812042728351398  0.7298313728438053  0.1223873621816722
  0.4469104881340242  0.4093802153280472  0.1718648250505741
  0.0852264501911182  0.4196150391250159  0.2031139595472497
  0.3305415633196842  0.0137974067522841  0.1785106835123274
  0.2906300143881412  0.3205712748287416  0.1832146364143107
  0.1708436603854247  0.1765485602382624  0.1936124493181549
  1.0093146937365742  1.1744645471319377  0.2408064318505792
  0.3686939242120642  0.3434503813230650  0.1224504943635099
  0.5998457564359760  0.3366837349647805  0.1023372710200458
 
  0.55697952E-02  0.41645818E-02 -0.14202777E-02
 -0.23727182E-02  0.71001167E-02  0.39443049E-02
 -0.22788749E-02  0.22771750E-02  0.17400686E-02
 -0.11817673E-02 -0.79533373E-03 -0.93667196E-02
 -0.29258206E-02  0.14827496E-03 -0.44557095E-02
 -0.48487820E-03  0.14894701E-02  0.42877579E-02
 -0.26955891E-02 -0.10456349E-02 -0.99693355E-03
  0.27755908E-02 -0.11483562E-02  0.49905856E-02
  0.44671028E-02  0.18238005E-02 -0.47683527E-02
  0.13215566E-02 -0.35300381E-02  0.14957111E-02
 -0.56874768E-02  0.23413032E-04  0.21507047E-02
 -0.59012576E-03  0.21110869E-02  0.26782968E-02
 -0.74675676E-02 -0.55861114E-02 -0.68596558E-03
  0.19708108E-02 -0.91122044E-03  0.82733773E-03
 -0.20518266E-02 -0.65980274E-03 -0.11995662E-03
 -0.27566329E-02  0.11945177E-02  0.25619656E-02
  0.14996392E-01  0.67564995E-02 -0.18451897E-01
 -0.19216984E-01  0.32857599E-02  0.11903904E-01
 -0.14949411E-01 -0.19215592E-01  0.12335331E-01
 -0.10732459E-01  0.41069168E-01 -0.89457112E-02
 -0.45578700E-02  0.21045509E-01 -0.42603064E-01
 -0.47988697E-01 -0.95634725E-03  0.19527573E-01
  0.66673561E-02  0.14654229E-01  0.59475254E-02
 -0.19801219E-01 -0.52181982E-01  0.59224129E-01
 -0.38148305E-01 -0.85687312E-02  0.11677064E-01
  0.16980930E-02  0.71646167E-02  0.48513763E-02
 -0.74190990E-03  0.59671672E-02 -0.30383314E-01
  0.30755545E-01  0.69009628E-02  0.16111831E-01
 -0.25732380E-01 -0.37323732E-01  0.28310783E-01
 -0.20822719E-01 -0.22338908E-01  0.11994635E-01
 -0.52456971E-02  0.41956746E-01 -0.18696140E-01
 -0.11255695E-01  0.23781233E-01  0.39327180E-02
 -0.13794511E-01 -0.60292281E-02 -0.18828101E-01
 -0.14292949E-01  0.27048688E-01  0.14365376E-01
 -0.17855377E-01 -0.23504014E-01  0.20490127E-01
 -0.16845793E-02  0.25530238E-01 -0.15947665E-01
  0.70294855E-02 -0.32349548E-01 -0.38310004E-01
 -0.98717009E-02 -0.10976466E-01 -0.10641516E-01
 -0.27574009E-02  0.27833816E-02 -0.33707453E-02
 -0.21917733E-01  0.33289153E-01  0.22611856E-01
 -0.21734821E-01 -0.25008749E-01 -0.39279726E-01
  0.12335473E-02 -0.22882130E-01 -0.52099982E-02
  0.64983216E-01  0.11863002E-01  0.26657852E-01
 -0.28862998E-01  0.51551005E-02  0.29693668E-02
  0.13938581E-02 -0.56845954E-02 -0.87894419E-02
 -0.10051779E-01  0.46446833E-02  0.46201619E-02
  0.89103669E-02 -0.15049829E-02 -0.55772358E-02
  0.23503737E-02 -0.29637335E-02 -0.37363790E-02
  0.20452806E-02 -0.76254836E-02 -0.99762734E-02
  0.29941808E-02  0.11601246E-02  0.14122418E-01
  0.45076225E-02 -0.62410051E-02  0.22309973E-02
  0.12553227E-01  0.34741341E-03 -0.18536964E-01
  0.13097950E-01  0.27589979E-02  0.12539765E-02
 -0.67410819E-02  0.10477096E-01  0.77719490E-02
  0.31617702E-03 -0.56199136E-03 -0.81151610E-02
  0.57311424E-02  0.19083596E-02  0.18594682E-02
 -0.21379428E-02 -0.14984814E-02  0.69304117E-03
 -0.14435582E-01 -0.15102163E-02 -0.22770955E-02
 -0.59603538E-02  0.16962593E-02  0.11930980E-02
  0.87341044E-02 -0.74710500E-02  0.96445418E-02
  0.79835059E-02  0.61806571E-02 -0.15373108E-01
 -0.70203667E-02  0.87221915E-02  0.90751544E-02
  0.25985613E-02 -0.11719501E-02  0.89741207E-02
 -0.55032202E-02  0.99705052E-03  0.43838227E-02
 -0.73733781E-02 -0.78007989E-02 -0.61031980E-02
  0.20656196E-01 -0.11015168E-02  0.34311358E-02
  0.82691670E-02  0.51018556E-02 -0.93313543E-02
  0.35443597E-02  0.40025790E-02 -0.73746319E-02
  0.81001103E-02  0.83048281E-02 -0.18500116E-01
 -0.31459745E-02  0.12546394E-02 -0.54249261E-02
 -0.14774834E-01  0.18774758E-03 -0.85159556E-02
  0.10283499E-01  0.16853620E-02  0.15637708E-02
  0.10266045E-02 -0.33101126E-02 -0.99184716E-03
  0.55641978E-02  0.45118069E-03  0.53799228E-02
 -0.21018915E-02  0.90577378E-02  0.85237407E-02
  0.15860203E-02 -0.53733828E-02  0.65036379E-02
  0.57780190E-02 -0.42909296E-03 -0.77243462E-02
  0.88069063E-02 -0.26464925E-02  0.14719004E-02
 -0.41421493E-02 -0.86785942E-02  0.92930956E-02
  0.89830516E-02  0.37492461E-03  0.12016293E-01
 -0.82188104E-02  0.95828814E-02  0.77709622E-02
 -0.86447575E-02 -0.82780857E-02  0.84069946E-02
  0.90246061E-03 -0.17896641E-01  0.61074920E-02
 -0.16276138E-02  0.24907406E-02  0.10690879E-02
  0.84216483E-02  0.16294209E-02 -0.12541184E-01
 -0.86746460E-02 -0.50353222E-02  0.69933616E-02
  0.49069491E-02 -0.64906870E-03 -0.36963968E-02
 -0.55865979E-02 -0.37381844E-02  0.42021924E-02
 
           1
   1.00000000000000     
  0.46161757E+01 -0.26682961E-02 -0.27133942E-02  0.46188665E+01
  0.91887776E-01  0.35723900E+00  0.24200459E-01
  0.34062464E+00  0.33999413E+00  0.33737409E-01
  0.98721534E+00  0.84155672E+00  0.51462708E-01
  0.22118281E+00  0.84921958E+00  0.46030294E-01
  0.19491550E+00  0.14994527E+00  0.63160883E-01
  0.49479633E+00  0.13853300E+00  0.34001415E-01
  0.92197089E-01  0.65490896E+00  0.35047198E-01
  0.36803730E+00  0.64856277E+00  0.59410640E-01
  0.64223366E+00  0.26362683E+00  0.30785385E-01
  0.88817031E+00  0.35598755E+00  0.10000258E+00
  0.52788631E+00  0.80829884E+00  0.68192101E-01
  0.77730066E+00  0.84425794E+00  0.13391124E+00
  0.78385540E+00  0.13642583E+00  0.73749494E-01
  0.17689289E-01  0.17151018E+00  0.42277847E-01
  0.64708180E+00  0.83880862E+00  0.10091739E+00
  0.90701912E+00  0.62178365E+00  0.14210918E+00
  0.40377297E-01  0.97376970E+00  0.12464433E+00
  0.27097247E+00  0.51963304E-02  0.12949845E+00
  0.11624734E-01  0.47998509E+00  0.90306554E-01
  0.33714300E+00  0.61920842E+00  0.15217412E+00
  0.20284049E+00  0.50224408E+00  0.98416380E+00
  0.63143671E+00  0.47563522E+00  0.12566950E-01
  0.19499040E+00  0.23655712E-01  0.97593220E+00
  0.47154714E+00  0.92351374E+00  0.98916100E+00
  0.52303494E+00  0.15366449E-01  0.11894884E+00
  0.83890489E+00  0.73019536E-01  0.15508507E+00
  0.66273502E+00  0.35869689E+00  0.17114474E+00
  0.90991838E+00  0.65402794E+00  0.23378098E+00
  0.73738111E+00  0.83194187E+00  0.34699012E-01
  0.78301744E+00  0.55344798E+00  0.10298931E+00
  0.86537414E+00  0.66820567E-01  0.16330217E-01
  0.97324070E+00  0.11465570E-01  0.96619356E+00
  0.47211596E+00  0.48981151E+00  0.15989340E+00
  0.48541381E+00  0.34019200E+00  0.16430535E+00
  0.54034286E-01  0.39747540E+00  0.17257005E+00
  0.50180550E-01  0.47348486E+00  0.22423130E+00
  0.33537421E+00  0.92413118E+00  0.19562691E+00
  0.36470659E+00  0.99774046E+00  0.14900735E+00
  0.29877670E+00  0.30156780E+00  0.22008145E+00
  0.24612929E+00  0.26050498E+00  0.17920803E+00
  0.14384782E+00  0.26090184E+00  0.18535682E+00
  0.15070382E+00  0.15630246E+00  0.22769716E+00
  0.99145801E+00  0.22493767E+00  0.27163150E+00
  0.60892202E-02  0.22717928E+00  0.20928887E+00
  0.22276936E-01  0.99658857E+00  0.89780564E-01
  0.23538404E+00  0.15479708E-02  0.99483217E-01
  0.10968965E+00  0.23388588E+00  0.72488928E-01
  0.42175193E+00  0.25847643E+00  0.18865534E-01
  0.61708841E-01  0.49735073E+00  0.61582294E-01
  0.35931277E+00  0.57156370E+00  0.12301506E+00
  0.14117305E+00  0.77794723E+00  0.71163655E-01
  0.46777912E+00  0.68822936E+00  0.51152846E-01
  0.29843200E-01  0.27482876E+00  0.98692254E+00
  0.26405650E+00  0.25958099E+00  0.55051191E-01
  0.15277824E+00  0.51235345E+00  0.99793584E+00
  0.33826542E+00  0.51250305E+00  0.23872016E-01
  0.29180266E-01  0.74308469E+00  0.99884044E+00
  0.29653284E+00  0.74886400E+00  0.50872127E-01
  0.18133123E+00  0.45536236E-02  0.12195392E-01
  0.44416966E+00  0.61896667E-02  0.99893251E+00
  0.49834006E+00  0.99916330E+00  0.85155791E-01
  0.82009752E+00  0.19549491E-01  0.12518021E+00
  0.69884927E+00  0.13458561E+00  0.55130619E-01
  0.94354434E+00  0.23962059E+00  0.75068550E-01
  0.67127354E+00  0.41928907E+00  0.13728872E-02
  0.94952645E+00  0.61682445E+00  0.21109026E+00
  0.69326723E+00  0.89234039E+00  0.15829454E+00
  0.95146085E+00  0.72533699E+00  0.91274715E-01
  0.57867150E+00  0.16453963E+00  0.99805693E+00
  0.80423648E+00  0.26512274E+00  0.11313828E+00
  0.76134737E+00  0.88894688E+00  0.60827180E-01
  0.83000772E+00  0.51472048E+00  0.11451158E+00
  0.61083652E+00  0.88549702E+00  0.39851901E-01
  0.84689004E+00  0.75313126E+00  0.16235550E+00
  0.82586023E+00  0.13280996E+00  0.96124613E-02
  0.98126267E+00  0.42514235E-02  0.41209313E-02
  0.64132986E+00  0.27079941E+00  0.15873946E+00
  0.96311089E+00  0.46125200E+00  0.12268323E+00
  0.52224670E+00  0.26797363E+00  0.11521162E+00
  0.58169888E+00  0.72986899E+00  0.12285927E+00
  0.44645796E+00  0.41034175E+00  0.17217001E+00
  0.84750472E-01  0.41878442E+00  0.20344412E+00
  0.33059125E+00  0.12001673E-01  0.17875054E+00
  0.29054040E+00  0.32082119E+00  0.18325662E+00
  0.17130735E+00  0.17671205E+00  0.19311993E+00
  0.88370702E-02  0.17395931E+00  0.24108108E+00
  0.36896410E+00  0.34338525E+00  0.12230533E+00
  0.59953816E+00  0.33630865E+00  0.10250230E+00
  0.00000000E+00  0.00000000E+00  0.00000000E+00
  0.00000000E+00  0.00000000E+00  0.00000000E+00
  0.00000000E+00  0.00000000E+00  0.00000000E+00
  0.00000000E+00  0.00000000E+00  0.00000000E+00
  0.00000000E+00  0.00000000E+00  0.00000000E+00
  0.00000000E+00  0.00000000E+00  0.00000000E+00
  0.00000000E+00  0.00000000E+00  0.00000000E+00
  0.00000000E+00  0.00000000E+00  0.00000000E+00
  0.00000000E+00  0.00000000E+00  0.00000000E+00
  0.00000000E+00  0.00000000E+00  0.00000000E+00
  0.00000000E+00  0.00000000E+00  0.00000000E+00
  0.00000000E+00  0.00000000E+00  0.00000000E+00
  0.00000000E+00  0.00000000E+00  0.00000000E+00
  0.00000000E+00  0.00000000E+00  0.00000000E+00
  0.00000000E+00  0.00000000E+00  0.00000000E+00
  0.00000000E+00  0.00000000E+00  0.00000000E+00
  0.00000000E+00  0.00000000E+00  0.00000000E+00
  0.00000000E+00  0.00000000E+00  0.00000000E+00
  0.00000000E+00  0.00000000E+00  0.00000000E+00
  0.00000000E+00  0.00000000E+00  0.00000000E+00
  0.00000000E+00  0.00000000E+00  0.00000000E+00
  0.00000000E+00  0.00000000E+00  0.00000000E+00
  0.00000000E+00  0.00000000E+00  0.00000000E+00
  0.00000000E+00  0.00000000E+00  0.00000000E+00
  0.00000000E+00  0.00000000E+00  0.00000000E+00
  0.00000000E+00  0.00000000E+00  0.00000000E+00
  0.00000000E+00  0.00000000E+00  0.00000000E+00
  0.00000000E+00  0.00000000E+00  0.00000000E+00
  0.00000000E+00  0.00000000E+00  0.00000000E+00
  0.00000000E+00  0.00000000E+00  0.00000000E+00
  0.00000000E+00  0.00000000E+00  0.00000000E+00
  0.00000000E+00  0.00000000E+00  0.00000000E+00
  0.00000000E+00  0.00000000E+00  0.00000000E+00
  0.00000000E+00  0.00000000E+00  0.00000000E+00
  0.00000000E+00  0.00000000E+00  0.00000000E+00
  0.00000000E+00  0.00000000E+00  0.00000000E+00
  0.00000000E+00  0.00000000E+00  0.00000000E+00
  0.00000000E+00  0.00000000E+00  0.00000000E+00
  0.00000000E+00  0.00000000E+00  0.00000000E+00
  0.00000000E+00  0.00000000E+00  0.00000000E+00
  0.00000000E+00  0.00000000E+00  0.00000000E+00
  0.00000000E+00  0.00000000E+00  0.00000000E+00
  0.00000000E+00  0.00000000E+00  0.00000000E+00
  0.00000000E+00  0.00000000E+00  0.00000000E+00
  0.00000000E+00  0.00000000E+00  0.00000000E+00
  0.00000000E+00  0.00000000E+00  0.00000000E+00
  0.00000000E+00  0.00000000E+00  0.00000000E+00
  0.00000000E+00  0.00000000E+00  0.00000000E+00
  0.00000000E+00  0.00000000E+00  0.00000000E+00
  0.00000000E+00  0.00000000E+00  0.00000000E+00
  0.00000000E+00  0.00000000E+00  0.00000000E+00
  0.00000000E+00  0.00000000E+00  0.00000000E+00
  0.00000000E+00  0.00000000E+00  0.00000000E+00
  0.00000000E+00  0.00000000E+00  0.00000000E+00
  0.00000000E+00  0.00000000E+00  0.00000000E+00
  0.00000000E+00  0.00000000E+00  0.00000000E+00
  0.00000000E+00  0.00000000E+00  0.00000000E+00
  0.00000000E+00  0.00000000E+00  0.00000000E+00
  0.00000000E+00  0.00000000E+00  0.00000000E+00
  0.00000000E+00  0.00000000E+00  0.00000000E+00
  0.00000000E+00  0.00000000E+00  0.00000000E+00
  0.00000000E+00  0.00000000E+00  0.00000000E+00
  0.00000000E+00  0.00000000E+00  0.00000000E+00
  0.00000000E+00  0.00000000E+00  0.00000000E+00
  0.00000000E+00  0.00000000E+00  0.00000000E+00
  0.00000000E+00  0.00000000E+00  0.00000000E+00
  0.00000000E+00  0.00000000E+00  0.00000000E+00
  0.00000000E+00  0.00000000E+00  0.00000000E+00
  0.00000000E+00  0.00000000E+00  0.00000000E+00
  0.00000000E+00  0.00000000E+00  0.00000000E+00
  0.00000000E+00  0.00000000E+00  0.00000000E+00
  0.00000000E+00  0.00000000E+00  0.00000000E+00
  0.00000000E+00  0.00000000E+00  0.00000000E+00
  0.00000000E+00  0.00000000E+00  0.00000000E+00
  0.00000000E+00  0.00000000E+00  0.00000000E+00
  0.00000000E+00  0.00000000E+00  0.00000000E+00
  0.00000000E+00  0.00000000E+00  0.00000000E+00
  0.00000000E+00  0.00000000E+00  0.00000000E+00
  0.00000000E+00  0.00000000E+00  0.00000000E+00
  0.00000000E+00  0.00000000E+00  0.00000000E+00
  0.00000000E+00  0.00000000E+00  0.00000000E+00
  0.00000000E+00  0.00000000E+00  0.00000000E+00
  0.00000000E+00  0.00000000E+00  0.00000000E+00
  0.00000000E+00  0.00000000E+00  0.00000000E+00
  0.00000000E+00  0.00000000E+00  0.00000000E+00
  0.00000000E+00  0.00000000E+00  0.00000000E+00
  0.00000000E+00  0.00000000E+00  0.00000000E+00
  0.00000000E+00  0.00000000E+00  0.00000000E+00
  0.00000000E+00  0.00000000E+00  0.00000000E+00
  0.00000000E+00  0.00000000E+00  0.00000000E+00
  0.00000000E+00  0.00000000E+00  0.00000000E+00
  0.00000000E+00  0.00000000E+00  0.00000000E+00
  0.00000000E+00  0.00000000E+00  0.00000000E+00
  0.00000000E+00  0.00000000E+00  0.00000000E+00
  0.00000000E+00  0.00000000E+00  0.00000000E+00
  0.00000000E+00  0.00000000E+00  0.00000000E+00
  0.00000000E+00  0.00000000E+00  0.00000000E+00
  0.00000000E+00  0.00000000E+00  0.00000000E+00
  0.00000000E+00  0.00000000E+00  0.00000000E+00
  0.00000000E+00  0.00000000E+00  0.00000000E+00
  0.00000000E+00  0.00000000E+00  0.00000000E+00
  0.00000000E+00  0.00000000E+00  0.00000000E+00
  0.00000000E+00  0.00000000E+00  0.00000000E+00
  0.00000000E+00  0.00000000E+00  0.00000000E+00
  0.00000000E+00  0.00000000E+00  0.00000000E+00
  0.00000000E+00  0.00000000E+00  0.00000000E+00
  0.00000000E+00  0.00000000E+00  0.00000000E+00
  0.00000000E+00  0.00000000E+00  0.00000000E+00
  0.00000000E+00  0.00000000E+00  0.00000000E+00
  0.00000000E+00  0.00000000E+00  0.00000000E+00
  0.00000000E+00  0.00000000E+00  0.00000000E+00
  0.00000000E+00  0.00000000E+00  0.00000000E+00
  0.00000000E+00  0.00000000E+00  0.00000000E+00
  0.00000000E+00  0.00000000E+00  0.00000000E+00
  0.00000000E+00  0.00000000E+00  0.00000000E+00
  0.00000000E+00  0.00000000E+00  0.00000000E+00
  0.00000000E+00  0.00000000E+00  0.00000000E+00
  0.00000000E+00  0.00000000E+00  0.00000000E+00
  0.00000000E+00  0.00000000E+00  0.00000000E+00
  0.00000000E+00  0.00000000E+00  0.00000000E+00
  0.00000000E+00  0.00000000E+00  0.00000000E+00
  0.00000000E+00  0.00000000E+00  0.00000000E+00
  0.00000000E+00  0.00000000E+00  0.00000000E+00
  0.00000000E+00  0.00000000E+00  0.00000000E+00
  0.00000000E+00  0.00000000E+00  0.00000000E+00
  0.00000000E+00  0.00000000E+00  0.00000000E+00
  0.00000000E+00  0.00000000E+00  0.00000000E+00
  0.00000000E+00  0.00000000E+00  0.00000000E+00
  0.00000000E+00  0.00000000E+00  0.00000000E+00
  0.00000000E+00  0.00000000E+00  0.00000000E+00
  0.00000000E+00  0.00000000E+00  0.00000000E+00
  0.00000000E+00  0.00000000E+00  0.00000000E+00
  0.00000000E+00  0.00000000E+00  0.00000000E+00
  0.00000000E+00  0.00000000E+00  0.00000000E+00
  0.00000000E+00  0.00000000E+00  0.00000000E+00
  0.00000000E+00  0.00000000E+00  0.00000000E+00
  0.00000000E+00  0.00000000E+00  0.00000000E+00
  0.00000000E+00  0.00000000E+00  0.00000000E+00
  0.00000000E+00  0.00000000E+00  0.00000000E+00
  0.00000000E+00  0.00000000E+00  0.00000000E+00
  0.00000000E+00  0.00000000E+00  0.00000000E+00
  0.00000000E+00  0.00000000E+00  0.00000000E+00
  0.00000000E+00  0.00000000E+00  0.00000000E+00
  0.00000000E+00  0.00000000E+00  0.00000000E+00
  0.00000000E+00  0.00000000E+00  0.00000000E+00
  0.00000000E+00  0.00000000E+00  0.00000000E+00
  0.00000000E+00  0.00000000E+00  0.00000000E+00
  0.00000000E+00  0.00000000E+00  0.00000000E+00
  0.00000000E+00  0.00000000E+00  0.00000000E+00
  0.00000000E+00  0.00000000E+00  0.00000000E+00
  0.00000000E+00  0.00000000E+00  0.00000000E+00
  0.00000000E+00  0.00000000E+00  0.00000000E+00
  0.00000000E+00  0.00000000E+00  0.00000000E+00
  0.00000000E+00  0.00000000E+00  0.00000000E+00
  0.00000000E+00  0.00000000E+00  0.00000000E+00
  0.00000000E+00  0.00000000E+00  0.00000000E+00
  0.00000000E+00  0.00000000E+00  0.00000000E+00
  0.00000000E+00  0.00000000E+00  0.00000000E+00
  0.00000000E+00  0.00000000E+00  0.00000000E+00
  0.00000000E+00  0.00000000E+00  0.00000000E+00
  0.00000000E+00  0.00000000E+00  0.00000000E+00
  0.00000000E+00  0.00000000E+00  0.00000000E+00
  0.00000000E+00  0.00000000E+00  0.00000000E+00
  0.00000000E+00  0.00000000E+00  0.00000000E+00
  0.00000000E+00  0.00000000E+00  0.00000000E+00
  0.00000000E+00  0.00000000E+00  0.00000000E+00
  0.00000000E+00  0.00000000E+00  0.00000000E+00
  0.00000000E+00  0.00000000E+00  0.00000000E+00
  0.00000000E+00  0.00000000E+00  0.00000000E+00
  0.00000000E+00  0.00000000E+00  0.00000000E+00
  0.00000000E+00  0.00000000E+00  0.00000000E+00
  0.00000000E+00  0.00000000E+00  0.00000000E+00
  0.00000000E+00  0.00000000E+00  0.00000000E+00
  0.00000000E+00  0.00000000E+00  0.00000000E+00
  0.00000000E+00  0.00000000E+00  0.00000000E+00
  0.00000000E+00  0.00000000E+00  0.00000000E+00
