
1.0
 18.162100   0.000000   0.000000
  0.000000   9.966200   0.000000
  0.000000   0.000000  25.463100
Mn H  O  Zn S
16 28 42 1  1
Cartesian 
    2.006385   3.586378   2.324458 
    6.546908   3.586378   2.324458 
    0.263877   8.569480   2.324458 
    4.804401   8.569480   2.324458 
    4.276646   1.396723   0.847105 
    8.817170   1.396723   0.847105 
    2.534139   6.379825   0.847105 
    7.074662   6.379825   0.847105 
   11.087432   3.586378   2.324458 
   15.627955   3.586378   2.324458 
    9.344924   8.569480   2.324458 
   13.885448   8.569480   2.324458 
   13.357693   1.396723   0.847105 
   17.898217   1.396723   0.847105 
   11.615186   6.379825   0.847105 
   16.155709   6.379825   0.847105 
    1.816418   1.003527   2.324458 
    6.356942   1.003527   2.324458 
    0.453843   5.986628   2.324458 
    4.994367   5.986628   2.324458 
    4.086680   3.979575   0.847105 
    8.627204   3.979575   0.847105 
    2.724105   8.962676   0.847105 
    7.264629   8.962676   0.847105 
   10.897465   1.003527   2.324458 
   15.437989   1.003527   2.324458 
    9.534890   5.986628   2.324458 
   14.075414   5.986628   2.324458 
   13.167727   3.979575   0.847105 
   17.708251   3.979575   0.847105 
   11.805152   8.962676   0.847105 
   16.345676   8.962676   0.847105 
    6.000680   3.213829   5.000000 
    4.723491   3.380556   6.003905 
    3.224660   5.170764   3.978050 
    2.544308   3.693455   4.124732 
    5.933576   5.721023   6.119771 
    7.215391   4.710612   6.066326 
    7.322580   5.511719   3.964676 
    6.477221   6.907733   4.022530 
    1.906609   6.944701   3.197532 
    3.534756   6.964787   3.072748 
   13.073250   8.323050   4.006019 
   14.627049   8.122511   3.950217 
    0.867004   0.619270   2.324458 
    5.407527   0.619270   2.324458 
    3.108252   1.907133   2.324458 
    7.648775   1.907133   2.324458 
    1.403258   5.602371   2.324458 
    5.943781   5.602371   2.324458 
    3.702534   6.890234   2.324458 
    8.243057   6.890234   2.324458 
    0.837990   3.075969   0.847105 
    5.378513   3.075969   0.847105 
    3.137266   4.363832   0.847105 
    7.677789   4.363832   0.847105 
    1.432272   8.059070   0.847105 
    5.972795   8.059070   0.847105 
    3.673520   9.346933   0.847105 
    8.214043   9.346933   0.847105 
    9.948051   0.619270   2.324458 
   14.488574   0.619270   2.324458 
   12.189299   1.907133   2.324458 
   16.729822   1.907133   2.324458 
   10.484305   5.602371   2.324458 
   15.024828   5.602371   2.324458 
   12.783581   6.890234   2.324458 
   17.324104   6.890234   2.324458 
    9.919037   3.075969   0.847105 
   14.459560   3.075969   0.847105 
   12.218313   4.363832   0.847105 
   16.758836   4.363832   0.847105 
   10.513319   8.059070   0.847105 
   15.053842   8.059070   0.847105 
   12.754567   9.346933   0.847105 
   17.295090   9.346933   0.847105 
   10.000000   3.586378   5.324458 
   12.000000   3.400000   3.500000 
   11.087432   2.586378   5.324458 
   11.087432   4.586378   3.500000 
    5.252744   3.817387   5.276453 
    2.838493   4.396253   3.476928 
    6.932117   5.669065   6.101565 
    6.406133   5.910460   4.000000 
    2.762277   7.078026   3.697705 
   13.777788   8.058175   3.426067 
    9.000000   3.586378   3.400000 
   11.000000   3.586378   4.324458 
