                                        
   1.00000000000000     
     4.4478200000000001    0.0000000000000000    0.0000000000000000
     0.0000000000000000    8.8956300000000006    0.0000000000000000
     0.0000000000000000    0.0000000000000000   28.8069999999999986
   Mn   H    O    Zn   S 
    16    23    31     1     1
Selective dynamics
Direct
  0.5116496157582402 -0.0006444110933684  0.2506328601082987   T   T   T
  0.1539681774205348  0.1474587652609487  0.2947551924498418   T   T   T
 -0.0063023577314911  0.0008585403882360  0.1839910567733855   T   T   T
  0.5003508332024148  0.2643195643359075  0.1867551591673718   T   T   T
  0.4999995503415136  0.0000000000000000  0.1055277536709838   F   F   F
  0.0000000000000000  0.2500000562073765  0.1055277536709838   F   F   F
  0.0000000000000000  0.0000000000000000  0.0283275245600052   F   F   F
  0.4999995503415136  0.2500000562073765  0.0283275245600052   F   F   F
  0.6462131783859892  0.3849919459330385  0.2881885667714125   T   T   T
 -0.0843200988491777  0.7465467617375421  0.2620572431721797   T   T   T
 -0.0374594119872897  0.4918352573932792  0.1894539348281517   T   T   T
  0.4537264767629525  0.7354930362513414  0.1857868921558722   T   T   T
  0.4999995503415136  0.5000000000000000  0.1055277536709838   F   F   F
  0.0000000000000000  0.7500000562073765  0.1055277536709838   F   F   F
  0.0000000000000000  0.5000000000000000  0.0283275245600052   F   F   F
  0.4999995503415136  0.7500000562073765  0.0283275245600052   F   F   F
  1.2632354877361116  0.4529924162189686  0.4256787418844766   T   T   T
  0.0615945541636184  0.7388126335197585  0.3512264215489759   T   T   T
  0.3792819094198157  0.6889736116869636  0.4009906484337276   T   T   T
  0.1106144466997618 -0.2285523552952757  0.4931521951292782   T   T   T
  0.1641971120011142  0.8339197919934919  0.4398653012706344   T   T   T
  0.8907046355007573  0.9138333733107260  0.4786695234266153   T   T   T
  1.0216581300219607  0.2942827823430843  0.9955161277368684   T   T   T
  0.8582518918340136  0.3339648916545585  0.6472847650833573   T   T   T
  0.7756084329439455 -0.1841122654002189  0.7872746153045049   T   T   T
 -0.6783340180076778 -0.6788216059831185  0.9451783374239884   T   T   T
  2.3119710030995200  0.6992647634255393  0.5765006920255068   T   T   T
  0.0406318025086452 -0.5066230770600694  0.9436055396007041   T   T   T
  1.9192622347683157  0.5716317585313715  0.9429574885173293   T   T   T
  0.4666630889654785 -0.0473584347171139  0.5024813837496865   T   T   T
  0.5738862944255297  0.0782698658441229  0.4679883606562164   T   T   T
  1.5748063155198064  1.3039404728544104  0.7459261921258622   T   T   T
  1.2071396928251235  0.4572137762649676  0.6034131449652794   T   T   T
  2.6333739473472386  2.1670165516764515  0.6456574942874729   T   T   T
  0.5874455437492273  0.3812586966856365  0.7564871342993092   T   T   T
 -0.2332006024067541  0.5947730128198595  0.5622727661818712   T   T   T
  0.5132295888252586  0.4301520450327618  0.3875919403620164   T   T   T
 -0.3468491507962764  0.7499589991882065  0.7934542347268000   T   T   T
  0.6379086764316999  0.6119546777001064  0.5147459131352986   T   T   T
 -0.0244273879810271 -0.0197546064453306  0.2517338513420985   T   T   T
  0.6320310624393040  0.2213263227082258  0.2474269058853968   T   T   T
  0.4960282279263915  0.0020726633868915  0.1795261579400048   T   T   T
  0.0430687053414133  0.2643471346460174  0.1795128238442560   T   T   T
  0.0000000000000000  0.0000000000000000  0.1055277536709838   F   F   F
  0.4999995503415136  0.2500000562073765  0.1055277536709838   F   F   F
  0.4999995503415136  0.0000000000000000  0.0283275245600052   F   F   F
  0.0000000000000000  0.2500000562073765  0.0283275245600052   F   F   F
 -0.1440702404107244  0.5356772338132796  0.2549865118672759   T   T   T
  0.4668485854072921  0.7864746620358340  0.2509505167488200   T   T   T
  0.4963939418891771  0.5007373124908480  0.1814451679657184   T   T   T
 -0.0117440934964688  0.7472980211039093  0.1817201182088418   T   T   T
  0.0000000000000000  0.5000000000000000  0.1055277536709838   F   F   F
  0.4999995503415136  0.7500000562073765  0.1055277536709838   F   F   F
  0.4999995503415136  0.5000000000000000  0.0283275245600052   F   F   F
  0.0000000000000000  0.7500000562073765  0.0283275245600052   F   F   F
 -0.1134859391741240  0.7520947477431413  0.3284837817259960   T   T   T
  0.2956662335270264  0.7899025178159172  0.3951265716430276   T   T   T
  1.1096635085712865  0.8616678565697709  0.4752282447014355   T   T   T
  0.6845634059695961  0.2647376907125055  0.6249025096197826   T   T   T
  0.6729129409389518  0.0348672957695668  0.7095497638261007   T   T   T
  0.2335772952664640  0.6695732944364625  0.7171178384593231   T   T   T
  0.6392116885673986  0.0101949006249322  0.4924477532484147   T   T   T
  0.4010215087717383  0.7576087227606768  0.5509395565419068   T   T   T
  0.2937779659173533  0.5657597753145652  0.6179102713976079   T   T   T
  0.4229320484610320  0.5049053542950800  0.4091152223069419   T   T   T
  0.8142400852576402  0.6534524383925865  0.5243495918833763   T   T   T
 -0.2576699825790989  0.3234279341958621  0.3505512390734485   T   T   T
 -0.2080477276685827  0.0749238083343277  0.3905803854633388   T   T   T
  0.2463658483137608  0.3448341234250392  0.2990348110406947   T   T   T
  0.4583191888276922  0.0298759733765537  0.3135687817616220   T   T   T
  0.6071268186391261 -0.1114480124413693  0.3585720233775141   T   T   T
 -0.0257370077077484  0.1981182502881402  0.3662862060897501   T   T   T
 
  0.12464545E-02 -0.20074917E-02  0.34123771E-03
 -0.12534933E-02  0.33108534E-03 -0.90292836E-03
 -0.24242932E-03 -0.82673552E-03  0.35071511E-02
  0.38567116E-03  0.63313508E-04  0.23601671E-02
  0.00000000E+00  0.00000000E+00  0.00000000E+00
  0.00000000E+00  0.00000000E+00  0.00000000E+00
  0.00000000E+00  0.00000000E+00  0.00000000E+00
  0.00000000E+00  0.00000000E+00  0.00000000E+00
  0.80598031E-03 -0.12906082E-02  0.67219767E-04
  0.13014789E-03 -0.13311871E-02  0.16003693E-02
  0.18142085E-02  0.32245988E-02  0.17265555E-02
 -0.37588545E-03  0.18342766E-02 -0.70971098E-03
  0.00000000E+00  0.00000000E+00  0.00000000E+00
  0.00000000E+00  0.00000000E+00  0.00000000E+00
  0.00000000E+00  0.00000000E+00  0.00000000E+00
  0.00000000E+00  0.00000000E+00  0.00000000E+00
  0.66937630E-02 -0.66643616E-02  0.20123259E-02
  0.15122189E-02  0.34453490E-02  0.96601154E-02
  0.24786390E-01  0.94159708E-02  0.72655552E-02
  0.35550172E-01  0.40777198E-02 -0.24881721E-01
 -0.10340806E-01 -0.56996933E-04 -0.18028190E-01
  0.67198283E-02 -0.10346925E-01 -0.20107087E-01
  0.48330912E-01 -0.25291652E-01  0.11758734E-01
  0.72232757E-01  0.58684976E-01  0.57744130E-01
  0.28105433E-01 -0.16887431E-01  0.14898240E-01
 -0.60841837E-01 -0.22371344E-02 -0.15120812E+00
 -0.64428047E-01  0.11637666E+00 -0.79137223E-01
  0.13817803E-01 -0.84632473E-01  0.73996306E-02
  0.72313448E-02  0.62803839E-01  0.27262683E-01
  0.11272900E-01  0.15708654E-01  0.24439443E-01
  0.90062053E-02 -0.34672002E-02  0.23169466E-01
  0.67393979E-02 -0.41958354E-02  0.54722847E-02
 -0.35616029E-01 -0.21263939E+00 -0.59839290E-01
 -0.14587784E-01 -0.22934906E-01  0.51666545E-01
 -0.14638950E-02  0.78597761E-03 -0.16775850E-01
 -0.95839289E-02  0.10979737E-01  0.53897465E-01
  0.12154874E-02  0.83909946E-02 -0.37561600E-04
 -0.12706386E-01  0.17259424E-01 -0.12439837E-01
  0.51865385E-02 -0.16925992E-01 -0.26119012E-01
  0.28022109E-03 -0.25264643E-02  0.40989880E-03
 -0.36627564E-02 -0.35154366E-02 -0.73505675E-03
 -0.15725235E-02  0.15296345E-02 -0.13762829E-02
  0.23171134E-02 -0.12118064E-02 -0.17818041E-02
  0.00000000E+00  0.00000000E+00  0.00000000E+00
  0.00000000E+00  0.00000000E+00  0.00000000E+00
  0.00000000E+00  0.00000000E+00  0.00000000E+00
  0.00000000E+00  0.00000000E+00  0.00000000E+00
 -0.51832985E-03  0.87248033E-03  0.68825675E-02
  0.13673512E-02  0.13148621E-02 -0.20974652E-02
 -0.34313047E-02 -0.50522908E-02  0.42605113E-03
  0.14853899E-04 -0.36902389E-03  0.36395524E-02
  0.00000000E+00  0.00000000E+00  0.00000000E+00
  0.00000000E+00  0.00000000E+00  0.00000000E+00
  0.00000000E+00  0.00000000E+00  0.00000000E+00
  0.00000000E+00  0.00000000E+00  0.00000000E+00
 -0.29252190E-02  0.27563602E-02 -0.44291857E-02
  0.76257479E-03 -0.25588364E-02 -0.19066418E-02
 -0.31615490E-02  0.15687759E-02  0.32113162E-02
 -0.39642563E-02 -0.45692679E-03 -0.57101833E-02
 -0.38863404E-03 -0.54819718E-03  0.49664512E-03
 -0.21224778E-02  0.41070896E-02 -0.82609576E-02
  0.41054844E-02  0.12557791E-02 -0.63026038E-02
  0.47101515E-02 -0.47463484E-02  0.66675586E-02
  0.90684867E-02  0.14105225E-01  0.10819033E-01
  0.36077496E-02 -0.33881059E-02  0.11382563E-02
 -0.37812051E-02 -0.31005768E-02 -0.61107060E-02
 -0.26196531E-02  0.31938519E-02 -0.31771954E-02
  0.40079959E-02 -0.45426375E-02  0.84514782E-03
 -0.76013187E-03 -0.40909873E-02 -0.19823089E-02
 -0.33729592E-02  0.11906224E-02  0.24405355E-03
  0.13908179E-02 -0.54236865E-03  0.78303084E-03
 -0.29589560E-02  0.43483076E-02  0.14147838E-02
 
           1
   1.00000000000000     
  0.18551217E+02  0.15792098E-01  0.15932647E-01  0.18535354E+02
  0.51192986E+00  0.99912992E+00  0.25064471E+00
  0.15368636E+00  0.14749598E+00  0.29472385E+00
  0.99364314E+00  0.76560312E-03  0.18411280E+00
  0.50043754E+00  0.26432668E+00  0.18683709E+00
  0.49999955E+00  0.00000000E+00  0.10552775E+00
  0.00000000E+00  0.25000006E+00  0.10552775E+00
  0.00000000E+00  0.00000000E+00  0.28327525E-01
  0.49999955E+00  0.25000006E+00  0.28327525E-01
  0.64639439E+00  0.38484686E+00  0.28819090E+00
  0.91570916E+00  0.74639712E+00  0.26211280E+00
  0.96294848E+00  0.49219775E+00  0.18951387E+00
  0.45364197E+00  0.73569924E+00  0.18576226E+00
  0.49999955E+00  0.50000000E+00  0.10552775E+00
  0.00000000E+00  0.75000006E+00  0.10552775E+00
  0.00000000E+00  0.50000000E+00  0.28327525E-01
  0.49999955E+00  0.75000006E+00  0.28327525E-01
  0.26474044E+00  0.45224324E+00  0.42574860E+00
  0.61934545E-01  0.73919994E+00  0.35156176E+00
  0.38485461E+00  0.69003211E+00  0.40124286E+00
  0.11860716E+00  0.77190604E+00  0.49228846E+00
  0.16187220E+00  0.83391338E+00  0.43923947E+00
  0.89221545E+00  0.91267023E+00  0.47797153E+00
  0.32524332E-01  0.29143963E+00  0.99592432E+00
  0.87449193E+00  0.34056195E+00  0.64928928E+00
  0.78192736E+00  0.81398934E+00  0.78779179E+00
  0.30798696E+00  0.32092691E+00  0.93992933E+00
  0.29748569E+00  0.71234722E+00  0.57375354E+00
  0.43738449E-01  0.48386298E+00  0.94386241E+00
  0.92088805E+00  0.57869184E+00  0.94390388E+00
  0.46919757E+00  0.95440745E+00  0.50332977E+00
  0.57591115E+00  0.77880101E-01  0.46879266E+00
  0.57632153E+00  0.30346880E+00  0.74611616E+00
  0.19913217E+00  0.43330997E+00  0.60133590E+00
  0.63009419E+00  0.16443833E+00  0.64745104E+00
  0.58711642E+00  0.38134705E+00  0.75590478E+00
  0.76464465E+00  0.59600730E+00  0.56414375E+00
  0.51350287E+00  0.43109532E+00  0.38759064E+00
  0.65029408E+00  0.75189921E+00  0.79302240E+00
  0.63907476E+00  0.61005195E+00  0.51383922E+00
  0.97563561E+00  0.97996138E+00  0.25174808E+00
  0.63120757E+00  0.22093114E+00  0.24740139E+00
  0.49567468E+00  0.22446169E-02  0.17947838E+00
  0.43589660E-01  0.26421091E+00  0.17945097E+00
  0.00000000E+00  0.00000000E+00  0.10552775E+00
  0.49999955E+00  0.25000006E+00  0.10552775E+00
  0.49999955E+00  0.00000000E+00  0.28327525E-01
  0.00000000E+00  0.25000006E+00  0.28327525E-01
  0.85581322E+00  0.53577531E+00  0.25522543E+00
  0.46715601E+00  0.78662247E+00  0.25087771E+00
  0.49562248E+00  0.50016936E+00  0.18145996E+00
  0.98825925E+00  0.74725654E+00  0.18184646E+00
  0.00000000E+00  0.50000000E+00  0.10552775E+00
  0.49999955E+00  0.75000006E+00  0.10552775E+00
  0.49999955E+00  0.50000000E+00  0.28327525E-01
  0.00000000E+00  0.75000006E+00  0.28327525E-01
  0.88585639E+00  0.75240460E+00  0.32833003E+00
  0.29583768E+00  0.78961487E+00  0.39506038E+00
  0.10895270E+00  0.86184421E+00  0.47533972E+00
  0.68367213E+00  0.26468633E+00  0.62470429E+00
  0.67282556E+00  0.34805670E-01  0.70956700E+00
  0.23310010E+00  0.67003499E+00  0.71683107E+00
  0.64013472E+00  0.10336069E-01  0.49222897E+00
  0.40208049E+00  0.75707516E+00  0.55117101E+00
  0.29581683E+00  0.56734541E+00  0.61828584E+00
  0.42374318E+00  0.50452448E+00  0.40915474E+00
  0.81338996E+00  0.65310389E+00  0.52413747E+00
  0.74174104E+00  0.32378697E+00  0.35044095E+00
  0.79285339E+00  0.74413149E-01  0.39060972E+00
  0.24619495E+00  0.34437424E+00  0.29896600E+00
  0.45756085E+00  0.30009817E-01  0.31357725E+00
  0.60743952E+00  0.88849102E+00  0.35859921E+00
  0.97359773E+00  0.19860706E+00  0.36633532E+00
  0.00000000E+00  0.00000000E+00  0.00000000E+00
  0.00000000E+00  0.00000000E+00  0.00000000E+00
  0.00000000E+00  0.00000000E+00  0.00000000E+00
  0.00000000E+00  0.00000000E+00  0.00000000E+00
  0.00000000E+00  0.00000000E+00  0.00000000E+00
  0.00000000E+00  0.00000000E+00  0.00000000E+00
  0.00000000E+00  0.00000000E+00  0.00000000E+00
  0.00000000E+00  0.00000000E+00  0.00000000E+00
  0.00000000E+00  0.00000000E+00  0.00000000E+00
  0.00000000E+00  0.00000000E+00  0.00000000E+00
  0.00000000E+00  0.00000000E+00  0.00000000E+00
  0.00000000E+00  0.00000000E+00  0.00000000E+00
  0.00000000E+00  0.00000000E+00  0.00000000E+00
  0.00000000E+00  0.00000000E+00  0.00000000E+00
  0.00000000E+00  0.00000000E+00  0.00000000E+00
  0.00000000E+00  0.00000000E+00  0.00000000E+00
  0.00000000E+00  0.00000000E+00  0.00000000E+00
  0.00000000E+00  0.00000000E+00  0.00000000E+00
  0.00000000E+00  0.00000000E+00  0.00000000E+00
  0.00000000E+00  0.00000000E+00  0.00000000E+00
  0.00000000E+00  0.00000000E+00  0.00000000E+00
  0.00000000E+00  0.00000000E+00  0.00000000E+00
  0.00000000E+00  0.00000000E+00  0.00000000E+00
  0.00000000E+00  0.00000000E+00  0.00000000E+00
  0.00000000E+00  0.00000000E+00  0.00000000E+00
  0.00000000E+00  0.00000000E+00  0.00000000E+00
  0.00000000E+00  0.00000000E+00  0.00000000E+00
  0.00000000E+00  0.00000000E+00  0.00000000E+00
  0.00000000E+00  0.00000000E+00  0.00000000E+00
  0.00000000E+00  0.00000000E+00  0.00000000E+00
  0.00000000E+00  0.00000000E+00  0.00000000E+00
  0.00000000E+00  0.00000000E+00  0.00000000E+00
  0.00000000E+00  0.00000000E+00  0.00000000E+00
  0.00000000E+00  0.00000000E+00  0.00000000E+00
  0.00000000E+00  0.00000000E+00  0.00000000E+00
  0.00000000E+00  0.00000000E+00  0.00000000E+00
  0.00000000E+00  0.00000000E+00  0.00000000E+00
  0.00000000E+00  0.00000000E+00  0.00000000E+00
  0.00000000E+00  0.00000000E+00  0.00000000E+00
  0.00000000E+00  0.00000000E+00  0.00000000E+00
  0.00000000E+00  0.00000000E+00  0.00000000E+00
  0.00000000E+00  0.00000000E+00  0.00000000E+00
  0.00000000E+00  0.00000000E+00  0.00000000E+00
  0.00000000E+00  0.00000000E+00  0.00000000E+00
  0.00000000E+00  0.00000000E+00  0.00000000E+00
  0.00000000E+00  0.00000000E+00  0.00000000E+00
  0.00000000E+00  0.00000000E+00  0.00000000E+00
  0.00000000E+00  0.00000000E+00  0.00000000E+00
  0.00000000E+00  0.00000000E+00  0.00000000E+00
  0.00000000E+00  0.00000000E+00  0.00000000E+00
  0.00000000E+00  0.00000000E+00  0.00000000E+00
  0.00000000E+00  0.00000000E+00  0.00000000E+00
  0.00000000E+00  0.00000000E+00  0.00000000E+00
  0.00000000E+00  0.00000000E+00  0.00000000E+00
  0.00000000E+00  0.00000000E+00  0.00000000E+00
  0.00000000E+00  0.00000000E+00  0.00000000E+00
  0.00000000E+00  0.00000000E+00  0.00000000E+00
  0.00000000E+00  0.00000000E+00  0.00000000E+00
  0.00000000E+00  0.00000000E+00  0.00000000E+00
  0.00000000E+00  0.00000000E+00  0.00000000E+00
  0.00000000E+00  0.00000000E+00  0.00000000E+00
  0.00000000E+00  0.00000000E+00  0.00000000E+00
  0.00000000E+00  0.00000000E+00  0.00000000E+00
  0.00000000E+00  0.00000000E+00  0.00000000E+00
  0.00000000E+00  0.00000000E+00  0.00000000E+00
  0.00000000E+00  0.00000000E+00  0.00000000E+00
  0.00000000E+00  0.00000000E+00  0.00000000E+00
  0.00000000E+00  0.00000000E+00  0.00000000E+00
  0.00000000E+00  0.00000000E+00  0.00000000E+00
  0.00000000E+00  0.00000000E+00  0.00000000E+00
  0.00000000E+00  0.00000000E+00  0.00000000E+00
  0.00000000E+00  0.00000000E+00  0.00000000E+00
  0.00000000E+00  0.00000000E+00  0.00000000E+00
  0.00000000E+00  0.00000000E+00  0.00000000E+00
  0.00000000E+00  0.00000000E+00  0.00000000E+00
  0.00000000E+00  0.00000000E+00  0.00000000E+00
  0.00000000E+00  0.00000000E+00  0.00000000E+00
  0.00000000E+00  0.00000000E+00  0.00000000E+00
  0.00000000E+00  0.00000000E+00  0.00000000E+00
  0.00000000E+00  0.00000000E+00  0.00000000E+00
  0.00000000E+00  0.00000000E+00  0.00000000E+00
  0.00000000E+00  0.00000000E+00  0.00000000E+00
  0.00000000E+00  0.00000000E+00  0.00000000E+00
  0.00000000E+00  0.00000000E+00  0.00000000E+00
  0.00000000E+00  0.00000000E+00  0.00000000E+00
  0.00000000E+00  0.00000000E+00  0.00000000E+00
  0.00000000E+00  0.00000000E+00  0.00000000E+00
  0.00000000E+00  0.00000000E+00  0.00000000E+00
  0.00000000E+00  0.00000000E+00  0.00000000E+00
  0.00000000E+00  0.00000000E+00  0.00000000E+00
  0.00000000E+00  0.00000000E+00  0.00000000E+00
  0.00000000E+00  0.00000000E+00  0.00000000E+00
  0.00000000E+00  0.00000000E+00  0.00000000E+00
  0.00000000E+00  0.00000000E+00  0.00000000E+00
  0.00000000E+00  0.00000000E+00  0.00000000E+00
  0.00000000E+00  0.00000000E+00  0.00000000E+00
  0.00000000E+00  0.00000000E+00  0.00000000E+00
  0.00000000E+00  0.00000000E+00  0.00000000E+00
  0.00000000E+00  0.00000000E+00  0.00000000E+00
  0.00000000E+00  0.00000000E+00  0.00000000E+00
  0.00000000E+00  0.00000000E+00  0.00000000E+00
  0.00000000E+00  0.00000000E+00  0.00000000E+00
  0.00000000E+00  0.00000000E+00  0.00000000E+00
  0.00000000E+00  0.00000000E+00  0.00000000E+00
  0.00000000E+00  0.00000000E+00  0.00000000E+00
  0.00000000E+00  0.00000000E+00  0.00000000E+00
  0.00000000E+00  0.00000000E+00  0.00000000E+00
  0.00000000E+00  0.00000000E+00  0.00000000E+00
  0.00000000E+00  0.00000000E+00  0.00000000E+00
  0.00000000E+00  0.00000000E+00  0.00000000E+00
  0.00000000E+00  0.00000000E+00  0.00000000E+00
  0.00000000E+00  0.00000000E+00  0.00000000E+00
  0.00000000E+00  0.00000000E+00  0.00000000E+00
  0.00000000E+00  0.00000000E+00  0.00000000E+00
  0.00000000E+00  0.00000000E+00  0.00000000E+00
  0.00000000E+00  0.00000000E+00  0.00000000E+00
  0.00000000E+00  0.00000000E+00  0.00000000E+00
  0.00000000E+00  0.00000000E+00  0.00000000E+00
  0.00000000E+00  0.00000000E+00  0.00000000E+00
  0.00000000E+00  0.00000000E+00  0.00000000E+00
  0.00000000E+00  0.00000000E+00  0.00000000E+00
  0.00000000E+00  0.00000000E+00  0.00000000E+00
  0.00000000E+00  0.00000000E+00  0.00000000E+00
  0.00000000E+00  0.00000000E+00  0.00000000E+00
  0.00000000E+00  0.00000000E+00  0.00000000E+00
  0.00000000E+00  0.00000000E+00  0.00000000E+00
  0.00000000E+00  0.00000000E+00  0.00000000E+00
  0.00000000E+00  0.00000000E+00  0.00000000E+00
  0.00000000E+00  0.00000000E+00  0.00000000E+00
  0.00000000E+00  0.00000000E+00  0.00000000E+00
  0.00000000E+00  0.00000000E+00  0.00000000E+00
  0.00000000E+00  0.00000000E+00  0.00000000E+00
  0.00000000E+00  0.00000000E+00  0.00000000E+00
  0.00000000E+00  0.00000000E+00  0.00000000E+00
  0.00000000E+00  0.00000000E+00  0.00000000E+00
  0.00000000E+00  0.00000000E+00  0.00000000E+00
  0.00000000E+00  0.00000000E+00  0.00000000E+00
  0.00000000E+00  0.00000000E+00  0.00000000E+00
  0.00000000E+00  0.00000000E+00  0.00000000E+00
  0.00000000E+00  0.00000000E+00  0.00000000E+00
  0.00000000E+00  0.00000000E+00  0.00000000E+00
  0.00000000E+00  0.00000000E+00  0.00000000E+00
  0.00000000E+00  0.00000000E+00  0.00000000E+00
  0.00000000E+00  0.00000000E+00  0.00000000E+00
