ENCUT = 500
ISMEAR = 0
IBRION = 0
MDALGO = 2
ISIF = 2
SMASS = 1.0
SIGMA = 0.1
LREAL = Auto
ALGO = VeryFast
PREC = Low
ISYM = 0
TEBEG = 1200
TEND = 1200
NSW = 1000
POTIM = 1
NCORE = 5
NWRITE = 2
LWAVE = .FALSE.
LCHARG = .FALSE.
IVDW = 12
LDAU = True
LDAUJ = 0 0 0 0 0
LDAUL = 2 0 0 0 0
LDAUPRINT = 1
LDAUTYPE = 2
LDAUU = 3.9 0 0 0 0