                                        
   1.00000000000000     
    11.6356000000000002    0.0000000000000000    0.0000000000000000
     0.0000000000000000    5.8178000000000001    0.0000000000000000
     0.0000000000000000    0.0000000000000000   32.3928000000000011
   Mn   H    O    Zn   S 
    16    21    46     9     1
Selective dynamics
Direct
  0.1190492219709467 -0.0026131656941808  0.2732428508904983   T   T   T
  0.3918279564489299  0.0382002274646474  0.2599747214105668   T   T   T
  0.2516970215075405  0.2564291879855679  0.1989769746479596   T   T   T
  0.2514485860340179  0.7511909707306089  0.1977063593664955   T   T   T
  0.1250000000000000  0.4999981092509174  0.1358809982465274   F   F   F
  0.3750000859431424  0.4999970779332372  0.1358809982465274   F   F   F
  0.4999986249097574  0.2500000000000000  0.0634501802869778   F   F   F
  0.4999990546254622  0.7500001718862777  0.0634501802869778   F   F   F
  0.6380732005080451  0.0348253339490147  0.2723755280532490   T   T   T
  0.8770450997460684  0.0003115230871812  0.2517844144524516   T   T   T
  0.7507830958434230  0.2531186590295399  0.1972663161067839   T   T   T
  0.7490640685648410  0.7528677109170294  0.2011230878541962   T   T   T
  0.6250000859431424  0.4999981092509174  0.1358809982465274   F   F   F
  0.8750001718862777  0.4999970779332372  0.1358809982465274   F   F   F
  0.9999987108528998  0.2500000000000000  0.0634501802869778   F   F   F
  0.9999991405685975  0.7500001718862777  0.0634501802869778   F   F   F
  0.7125285009290331 -0.1303896221194811  0.3357646919923707   T   T   T
  0.9820531905988535  0.6816854647937164  0.3805995498245353   T   T   T
  1.0970996900605321  0.9822382954912791  0.3536697587515356   T   T   T
  0.4269658564072122  0.6715079232167617  0.3231648562544789   T   T   T
  0.4489236619732401  0.4015946358381653  0.3056791262401259   T   T   T
  0.4340701114478607  1.0871011900602423  0.4835899699629711   T   T   T
  0.4871219015313912  1.3465502578303332  0.4665697493229790   T   T   T
 -0.0091040206681939 -1.7687605355467189  0.8067825319782992   T   T   T
  0.9619507996207101 -0.1750228507572387  0.4239691323248853   T   T   T
  1.0692770499356432  1.0868754065487283  0.4896301941543594   T   T   T
  1.0615584438887400  0.9764764676772448  0.5417564407675352   T   T   T
  1.0690249141959838  0.6824590854975247  0.6102843261098398   T   T   T
  1.0419142297997137  0.6014722705783775  0.5632978344515327   T   T   T
  0.9945872713581981 -0.5682169784425715  0.4554122438298759   T   T   T
  0.7214135168835445  0.0859724232096770  0.5014548010765798   T   T   T
  0.4873535415870834  1.2653817677820582  0.4116293922005195   T   T   T
  0.6168428862761391  0.3075479232981031  0.4145162230671458   T   T   T
  1.0493200479593046  0.3406726404827206  0.3235148331749663   T   T   T
  1.0355597801471002 -0.4078287706156508  0.3081262223197053   T   T   T
  0.6332074556281935  0.0124363563388655  0.4829239351221177   T   T   T
  0.9450338079385149  0.0846972312357851  0.4917151323634242   T   T   T
  0.5133199267769202  0.2613798595970394  0.2679514577556604   T   T   T
  0.5187480598348669  0.8063889750644803  0.2642711020229884   T   T   T
  0.2548645213116430  0.2470810210345305  0.2609495194540874   T   T   T
  0.2618670647553766  0.7890214439194050  0.2573024316091954   T   T   T
  0.1442557901747362  0.0062422994739229  0.1969377919642689   T   T   T
  0.3687177168263825  0.0089336270600371  0.2007516067825725   T   T   T
  0.1431280854652832  0.5014734848674638  0.1966789779983434   T   T   T
  0.3673882580720999  0.5061742921195600  0.1965168275657154   T   T   T
  0.2500005156588401  0.2738670975282744  0.1375118544861849   F   F   F
  0.2500005156588401  0.7261301522912476  0.1375107122570469   F   F   F
  0.4999995702843023  0.2738670975282744  0.1342501420068629   F   F   F
  0.4999995702843023  0.7261301522912476  0.1342513151070577   F   F   F
  0.1130649902024814  0.4999991405685975  0.0650798634264405   F   F   F
  0.3869335487641408  0.4999991405685975  0.0650810365266352   F   F   F
  0.1130649902024814  0.0000010313176801  0.0618204662764583   F   F   F
  0.3869335487641408  0.0000010313176801  0.0618193240473204   F   F   F
  0.9870154110150361  0.2242488379921394  0.2671170842329491   T   T   T
  0.9972598511024423  0.7756884492446302  0.2668352828402525   T   T   T
  0.7562486430694288  0.2328016679585201  0.2541570520489668   T   T   T
  0.7615281127831628  0.8039336580449554  0.2608811798961967   T   T   T
  0.6426577951760873  0.0028947011714817  0.1976374560287894   T   T   T
  0.8606228580641431  0.0056924197622667  0.1938982494351932   T   T   T
  0.6393462236688597  0.5005708656835614  0.1958935869661093   T   T   T
  0.8617338843313150  0.5074328732960273  0.1967582464917204   T   T   T
  0.7500006016019825  0.2738670975282744  0.1375118544861849   F   F   F
  0.7500006016019825  0.7261301522912476  0.1375107122570469   F   F   F
  0.9999996562274376  0.2738670975282744  0.1342501420068629   F   F   F
  0.9999996562274376  0.7261301522912476  0.1342513151070577   F   F   F
  0.6130650761456238  0.4999991405685975  0.0650798634264405   F   F   F
  0.8869336347072760  0.4999991405685975  0.0650810365266352   F   F   F
  0.6130650761456238  0.0000010313176801  0.0618204662764583   F   F   F
  0.8869336347072760  0.0000010313176801  0.0618193240473204   F   F   F
  0.9473926128053012  0.8137968542174308  0.3916890454441431   T   T   T
  0.3938605385321690  0.5139465105152756  0.3187031763298988   T   T   T
  0.4995893587017891  1.2105825657310927  0.4850227263608690   T   T   T
  1.0051391176888400 -0.0235882017654785  0.4857665624672665   T   T   T
  1.1924488768025467  1.1326457542347554  0.5210830575078739   T   T   T
  1.0738596117972603  0.7466954893233779  0.5811934849109112   T   T   T
  0.3457559150033686  0.7838016112228556  0.4912901492887713   T   T   T
  0.5534044739776713  0.3403210635650466  0.3984938894482539   T   T   T
  1.0875221734393257  0.4956869767501560  0.3277828287853098   T   T   T
  0.7145835619952072 -0.0239649174037804  0.4839187377925713   T   T   T
  0.3281505892485240  0.9400412060025434  0.3950450210315856   T   T   T
  0.3854341689943467  1.0023773833492111  0.3236937971252464   T   T   T
  0.1505541472903476  0.9844703333880341  0.3313125959307271   T   T   T
  0.6597590620420976  1.0183961888860251  0.3302334385021130   T   T   T
  0.5084546779493604  0.5329592023518313  0.2324488586381511   T   T   T
  0.5065847383546241  0.0048778453656358  0.1670421745959633   T   T   T
  0.2500005156588401  0.0000010313176801  0.0996656047022810   F   F   F
  0.2500005156588401  0.4999991405685975  0.0272347558716746   F   F   F
  1.0015234785826077  0.5031267962246898  0.2302951842255945   T   T   T
  1.0086642739110030 -0.0022520194248163  0.1651349874394569   T   T   T
  0.7500006016019825  0.0000010313176801  0.0996656047022810   F   F   F
  0.7500006016019825  0.4999991405685975  0.0272347558716746   F   F   F
  0.2396790747309086  0.5317685848721859  0.2939393513436347   T   T   T
  0.3180851124936998  1.0945939576949222  0.3612783087340114   T   T   T
 
  0.20234641E-02 -0.38774319E-02 -0.10900898E-02
  0.23750475E-03  0.12183875E-02  0.27578562E-02
 -0.13606908E-02 -0.91322757E-03  0.10029064E-03
 -0.56728798E-03 -0.98595545E-03  0.15583542E-03
  0.00000000E+00  0.00000000E+00  0.00000000E+00
  0.00000000E+00  0.00000000E+00  0.00000000E+00
  0.00000000E+00  0.00000000E+00  0.00000000E+00
  0.00000000E+00  0.00000000E+00  0.00000000E+00
  0.55529785E-03 -0.14621520E-02 -0.42565019E-03
  0.34000809E-03  0.75454930E-03  0.26031230E-02
 -0.25253059E-02 -0.27502007E-03 -0.10070266E-02
  0.29492772E-02  0.15672304E-02 -0.48297280E-02
  0.00000000E+00  0.00000000E+00  0.00000000E+00
  0.00000000E+00  0.00000000E+00  0.00000000E+00
  0.00000000E+00  0.00000000E+00  0.00000000E+00
  0.00000000E+00  0.00000000E+00  0.00000000E+00
  0.22589887E-01  0.28119535E-01  0.39671331E-02
  0.19986451E-01 -0.55512348E-03 -0.14412421E-02
 -0.32459155E-01 -0.11521430E-01  0.29176729E-01
  0.23864194E-01 -0.67794542E-02 -0.39283632E-02
  0.23835910E-01 -0.87747529E-02  0.28208780E-01
 -0.25931190E-01  0.30750274E-01 -0.17822965E-01
 -0.59043147E-02 -0.69036904E-01  0.45576364E-01
 -0.25721140E-02 -0.59860846E-02  0.20994616E-01
  0.13039764E-01 -0.22790862E-01  0.44620869E-03
  0.95429054E-01  0.15587743E+00  0.44115586E-01
 -0.27343913E+00 -0.16560822E+00  0.86235476E-01
 -0.37374672E-02 -0.67299146E-01  0.92361088E-01
 -0.10086299E-01 -0.13066309E-01 -0.30864280E-01
  0.12420706E-01 -0.78427504E-01 -0.22858699E-01
  0.41226351E-01 -0.61788508E-01  0.44261268E-01
 -0.21675255E-01  0.16404479E-01  0.34117127E-01
 -0.75034944E-02 -0.10446749E-01  0.77077248E-02
 -0.26710328E-02  0.14072537E-01  0.16205432E-01
 -0.52855651E-02 -0.15772569E-01  0.20854049E-01
 -0.49176114E-01 -0.30875914E-03 -0.98828002E-02
  0.30079775E-01  0.31617285E-01  0.27413637E-01
 -0.40797696E-02  0.59978614E-02 -0.16754467E-02
  0.26545837E-02  0.41599787E-03 -0.70032599E-02
 -0.21126411E-02  0.40821630E-02 -0.19812980E-02
 -0.52098912E-03 -0.91890976E-04  0.26912972E-02
 -0.79759416E-03 -0.18284403E-02 -0.18107046E-02
  0.11097719E-02 -0.25319796E-02  0.89002545E-02
  0.14511149E-02 -0.60647968E-03 -0.22256972E-02
  0.70261688E-02 -0.47186633E-02  0.23538503E-02
  0.00000000E+00  0.00000000E+00  0.00000000E+00
  0.00000000E+00  0.00000000E+00  0.00000000E+00
  0.00000000E+00  0.00000000E+00  0.00000000E+00
  0.00000000E+00  0.00000000E+00  0.00000000E+00
  0.00000000E+00  0.00000000E+00  0.00000000E+00
  0.00000000E+00  0.00000000E+00  0.00000000E+00
  0.00000000E+00  0.00000000E+00  0.00000000E+00
  0.00000000E+00  0.00000000E+00  0.00000000E+00
 -0.59759289E-02 -0.24337531E-02  0.14334367E-02
  0.29542228E-02 -0.15444946E-02  0.26793507E-02
 -0.61471130E-02  0.57641336E-03  0.51502297E-02
  0.39623643E-02 -0.13497998E-02  0.19269271E-02
  0.32366907E-02  0.24740273E-02 -0.13005179E-02
  0.42347663E-02  0.23895915E-02  0.11341235E-02
  0.17903930E-03 -0.14984810E-04 -0.32403143E-03
 -0.17038230E-02 -0.16166579E-02  0.30437892E-02
  0.00000000E+00  0.00000000E+00  0.00000000E+00
  0.00000000E+00  0.00000000E+00  0.00000000E+00
  0.00000000E+00  0.00000000E+00  0.00000000E+00
  0.00000000E+00  0.00000000E+00  0.00000000E+00
  0.00000000E+00  0.00000000E+00  0.00000000E+00
  0.00000000E+00  0.00000000E+00  0.00000000E+00
  0.00000000E+00  0.00000000E+00  0.00000000E+00
  0.00000000E+00  0.00000000E+00  0.00000000E+00
 -0.87157018E-04  0.14370098E-02 -0.42222948E-02
 -0.35795241E-02 -0.57604886E-02  0.10401059E-03
 -0.10197417E-01  0.53043598E-02 -0.22854362E-02
  0.22804877E-01 -0.13834294E-01 -0.88278351E-02
  0.86799157E-02  0.62274886E-02 -0.63011613E-03
  0.22160851E-02  0.99974044E-02 -0.35776623E-02
  0.59843808E-02  0.28330931E-02 -0.31143605E-02
 -0.36755028E-02  0.54782278E-03 -0.92532301E-02
  0.35986128E-02  0.52452157E-03  0.53268148E-03
 -0.97470018E-02  0.26149610E-02 -0.74026714E-02
 -0.32048200E-02  0.14967466E-03  0.79142961E-02
  0.47880974E-03  0.32838750E-03  0.23779707E-03
  0.10602959E-02  0.34791149E-02 -0.38420999E-02
 -0.10608573E-02 -0.52369947E-02  0.10094903E-01
 -0.16933703E-02  0.20712285E-02  0.18677302E-02
 -0.23677167E-03 -0.94422503E-03 -0.27722296E-03
  0.00000000E+00  0.00000000E+00  0.00000000E+00
  0.00000000E+00  0.00000000E+00  0.00000000E+00
 -0.25005433E-02 -0.15100700E-02  0.23608603E-02
 -0.16075708E-02  0.35010481E-03  0.10381376E-02
  0.00000000E+00  0.00000000E+00  0.00000000E+00
  0.00000000E+00  0.00000000E+00  0.00000000E+00
  0.15200063E-02 -0.91891039E-03  0.79741638E-03
 -0.17252301E-02 -0.19546399E-02  0.14370304E-02
 
           1
   1.00000000000000     
  0.72538020E+01  0.57686476E-02  0.54183819E-02  0.72482085E+01
  0.11922312E+00  0.99672036E+00  0.27320920E+00
  0.39184837E+00  0.38409652E-01  0.26005986E+00
  0.25158008E+00  0.25627222E+00  0.19898007E+00
  0.25139983E+00  0.75102150E+00  0.19771117E+00
  0.12500000E+00  0.49999811E+00  0.13588100E+00
  0.37500009E+00  0.49999708E+00  0.13588100E+00
  0.49999862E+00  0.25000000E+00  0.63450180E-01
  0.49999905E+00  0.75000017E+00  0.63450180E-01
  0.63812092E+00  0.34574010E-01  0.27236239E+00
  0.87707432E+00  0.44121976E-03  0.25186478E+00
  0.75056606E+00  0.25307139E+00  0.19723523E+00
  0.74931754E+00  0.75313710E+00  0.20097399E+00
  0.62500009E+00  0.49999811E+00  0.13588100E+00
  0.87500017E+00  0.49999708E+00  0.13588100E+00
  0.99999871E+00  0.25000000E+00  0.63450180E-01
  0.99999914E+00  0.75000017E+00  0.63450180E-01
  0.71446995E+00  0.87444374E+00  0.33588716E+00
  0.98377089E+00  0.68159005E+00  0.38055506E+00
  0.94310048E-01  0.98025792E+00  0.35457048E+00
  0.42901682E+00  0.67034263E+00  0.32304358E+00
  0.45097219E+00  0.40008638E+00  0.30654996E+00
  0.43184150E+00  0.92386740E-01  0.48303976E+00
  0.48661447E+00  0.33468376E+00  0.46797674E+00
  0.99067492E+00  0.23021054E+00  0.80743066E+00
  0.96307148E+00  0.82105971E+00  0.42398291E+00
  0.77478523E-01  0.11366860E+00  0.49099209E+00
  0.38058227E-01  0.94801069E+00  0.54441862E+00
  0.68703705E-01  0.67089129E+00  0.61313561E+00
  0.41047382E-01  0.59922635E+00  0.56234502E+00
  0.99565475E+00  0.41830241E+00  0.45470657E+00
  0.72495664E+00  0.75351826E-01  0.50282119E+00
  0.48549070E+00  0.26820147E+00  0.41268262E+00
  0.61619801E+00  0.30575227E+00  0.41475417E+00
  0.49090491E-01  0.34309152E+00  0.32401511E+00
  0.35105522E-01  0.58946014E+00  0.30877001E+00
  0.62898111E+00  0.12383285E-01  0.48261884E+00
  0.94761896E+00  0.90131809E-01  0.49256142E+00
  0.51296930E+00  0.26241081E+00  0.26789973E+00
  0.51897620E+00  0.80646048E+00  0.26405490E+00
  0.25468295E+00  0.24778269E+00  0.26088835E+00
  0.26182229E+00  0.78900565E+00  0.25738551E+00
  0.14418724E+00  0.59280157E-02  0.19688189E+00
  0.36881309E+00  0.84984145E-02  0.20102637E+00
  0.14325280E+00  0.50136924E+00  0.19661027E+00
  0.36799211E+00  0.50536322E+00  0.19658949E+00
  0.25000052E+00  0.27386710E+00  0.13751185E+00
  0.25000052E+00  0.72613015E+00  0.13751071E+00
  0.49999957E+00  0.27386710E+00  0.13425014E+00
  0.49999957E+00  0.72613015E+00  0.13425132E+00
  0.11306499E+00  0.49999914E+00  0.65079863E-01
  0.38693355E+00  0.49999914E+00  0.65081037E-01
  0.11306499E+00  0.10313177E-05  0.61820466E-01
  0.38693355E+00  0.10313177E-05  0.61819324E-01
  0.98650182E+00  0.22383051E+00  0.26716134E+00
  0.99751375E+00  0.77542297E+00  0.26691800E+00
  0.75572034E+00  0.23290075E+00  0.25431605E+00
  0.76186865E+00  0.80370165E+00  0.26094067E+00
  0.64293597E+00  0.33199525E-02  0.19759731E+00
  0.86098681E+00  0.61031577E-02  0.19393326E+00
  0.63936161E+00  0.50056829E+00  0.19588358E+00
  0.86158745E+00  0.50715499E+00  0.19685221E+00
  0.75000060E+00  0.27386710E+00  0.13751185E+00
  0.75000060E+00  0.72613015E+00  0.13751071E+00
  0.99999966E+00  0.27386710E+00  0.13425014E+00
  0.99999966E+00  0.72613015E+00  0.13425132E+00
  0.61306508E+00  0.49999914E+00  0.65079863E-01
  0.88693363E+00  0.49999914E+00  0.65081037E-01
  0.61306508E+00  0.10313177E-05  0.61820466E-01
  0.88693363E+00  0.10313177E-05  0.61819324E-01
  0.94738512E+00  0.81404386E+00  0.39155870E+00
  0.39355290E+00  0.51295636E+00  0.31870639E+00
  0.49871296E+00  0.21149431E+00  0.48495217E+00
  0.70990404E-02  0.97403387E+00  0.48549404E+00
  0.19319486E+00  0.13371617E+00  0.52106361E+00
  0.74050069E-01  0.74841391E+00  0.58108304E+00
  0.34627023E+00  0.78428858E+00  0.49119401E+00
  0.55308859E+00  0.34041523E+00  0.39820823E+00
  0.87831450E-01  0.49577713E+00  0.32779927E+00
  0.71374587E+00  0.97648456E+00  0.48369021E+00
  0.32787516E+00  0.94006693E+00  0.39528934E+00
  0.38547532E+00  0.24338287E-02  0.32370114E+00
  0.15064527E+00  0.98506835E+00  0.33119399E+00
  0.65966789E+00  0.17496021E-01  0.33054508E+00
  0.50830914E+00  0.53331522E+00  0.23250652E+00
  0.50656439E+00  0.47155460E-02  0.16703362E+00
  0.25000052E+00  0.10313177E-05  0.99665605E-01
  0.25000052E+00  0.49999914E+00  0.27234756E-01
  0.13085740E-02  0.50286724E+00  0.23036807E+00
  0.85261142E-02  0.99780816E+00  0.16516704E+00
  0.75000060E+00  0.10313177E-05  0.99665605E-01
  0.75000060E+00  0.49999914E+00  0.27234756E-01
  0.23980971E+00  0.53161064E+00  0.29396397E+00
  0.31793684E+00  0.94257982E-01  0.36132267E+00
  0.00000000E+00  0.00000000E+00  0.00000000E+00
  0.00000000E+00  0.00000000E+00  0.00000000E+00
  0.00000000E+00  0.00000000E+00  0.00000000E+00
  0.00000000E+00  0.00000000E+00  0.00000000E+00
  0.00000000E+00  0.00000000E+00  0.00000000E+00
  0.00000000E+00  0.00000000E+00  0.00000000E+00
  0.00000000E+00  0.00000000E+00  0.00000000E+00
  0.00000000E+00  0.00000000E+00  0.00000000E+00
  0.00000000E+00  0.00000000E+00  0.00000000E+00
  0.00000000E+00  0.00000000E+00  0.00000000E+00
  0.00000000E+00  0.00000000E+00  0.00000000E+00
  0.00000000E+00  0.00000000E+00  0.00000000E+00
  0.00000000E+00  0.00000000E+00  0.00000000E+00
  0.00000000E+00  0.00000000E+00  0.00000000E+00
  0.00000000E+00  0.00000000E+00  0.00000000E+00
  0.00000000E+00  0.00000000E+00  0.00000000E+00
  0.00000000E+00  0.00000000E+00  0.00000000E+00
  0.00000000E+00  0.00000000E+00  0.00000000E+00
  0.00000000E+00  0.00000000E+00  0.00000000E+00
  0.00000000E+00  0.00000000E+00  0.00000000E+00
  0.00000000E+00  0.00000000E+00  0.00000000E+00
  0.00000000E+00  0.00000000E+00  0.00000000E+00
  0.00000000E+00  0.00000000E+00  0.00000000E+00
  0.00000000E+00  0.00000000E+00  0.00000000E+00
  0.00000000E+00  0.00000000E+00  0.00000000E+00
  0.00000000E+00  0.00000000E+00  0.00000000E+00
  0.00000000E+00  0.00000000E+00  0.00000000E+00
  0.00000000E+00  0.00000000E+00  0.00000000E+00
  0.00000000E+00  0.00000000E+00  0.00000000E+00
  0.00000000E+00  0.00000000E+00  0.00000000E+00
  0.00000000E+00  0.00000000E+00  0.00000000E+00
  0.00000000E+00  0.00000000E+00  0.00000000E+00
  0.00000000E+00  0.00000000E+00  0.00000000E+00
  0.00000000E+00  0.00000000E+00  0.00000000E+00
  0.00000000E+00  0.00000000E+00  0.00000000E+00
  0.00000000E+00  0.00000000E+00  0.00000000E+00
  0.00000000E+00  0.00000000E+00  0.00000000E+00
  0.00000000E+00  0.00000000E+00  0.00000000E+00
  0.00000000E+00  0.00000000E+00  0.00000000E+00
  0.00000000E+00  0.00000000E+00  0.00000000E+00
  0.00000000E+00  0.00000000E+00  0.00000000E+00
  0.00000000E+00  0.00000000E+00  0.00000000E+00
  0.00000000E+00  0.00000000E+00  0.00000000E+00
  0.00000000E+00  0.00000000E+00  0.00000000E+00
  0.00000000E+00  0.00000000E+00  0.00000000E+00
  0.00000000E+00  0.00000000E+00  0.00000000E+00
  0.00000000E+00  0.00000000E+00  0.00000000E+00
  0.00000000E+00  0.00000000E+00  0.00000000E+00
  0.00000000E+00  0.00000000E+00  0.00000000E+00
  0.00000000E+00  0.00000000E+00  0.00000000E+00
  0.00000000E+00  0.00000000E+00  0.00000000E+00
  0.00000000E+00  0.00000000E+00  0.00000000E+00
  0.00000000E+00  0.00000000E+00  0.00000000E+00
  0.00000000E+00  0.00000000E+00  0.00000000E+00
  0.00000000E+00  0.00000000E+00  0.00000000E+00
  0.00000000E+00  0.00000000E+00  0.00000000E+00
  0.00000000E+00  0.00000000E+00  0.00000000E+00
  0.00000000E+00  0.00000000E+00  0.00000000E+00
  0.00000000E+00  0.00000000E+00  0.00000000E+00
  0.00000000E+00  0.00000000E+00  0.00000000E+00
  0.00000000E+00  0.00000000E+00  0.00000000E+00
  0.00000000E+00  0.00000000E+00  0.00000000E+00
  0.00000000E+00  0.00000000E+00  0.00000000E+00
  0.00000000E+00  0.00000000E+00  0.00000000E+00
  0.00000000E+00  0.00000000E+00  0.00000000E+00
  0.00000000E+00  0.00000000E+00  0.00000000E+00
  0.00000000E+00  0.00000000E+00  0.00000000E+00
  0.00000000E+00  0.00000000E+00  0.00000000E+00
  0.00000000E+00  0.00000000E+00  0.00000000E+00
  0.00000000E+00  0.00000000E+00  0.00000000E+00
  0.00000000E+00  0.00000000E+00  0.00000000E+00
  0.00000000E+00  0.00000000E+00  0.00000000E+00
  0.00000000E+00  0.00000000E+00  0.00000000E+00
  0.00000000E+00  0.00000000E+00  0.00000000E+00
  0.00000000E+00  0.00000000E+00  0.00000000E+00
  0.00000000E+00  0.00000000E+00  0.00000000E+00
  0.00000000E+00  0.00000000E+00  0.00000000E+00
  0.00000000E+00  0.00000000E+00  0.00000000E+00
  0.00000000E+00  0.00000000E+00  0.00000000E+00
  0.00000000E+00  0.00000000E+00  0.00000000E+00
  0.00000000E+00  0.00000000E+00  0.00000000E+00
  0.00000000E+00  0.00000000E+00  0.00000000E+00
  0.00000000E+00  0.00000000E+00  0.00000000E+00
  0.00000000E+00  0.00000000E+00  0.00000000E+00
  0.00000000E+00  0.00000000E+00  0.00000000E+00
  0.00000000E+00  0.00000000E+00  0.00000000E+00
  0.00000000E+00  0.00000000E+00  0.00000000E+00
  0.00000000E+00  0.00000000E+00  0.00000000E+00
  0.00000000E+00  0.00000000E+00  0.00000000E+00
  0.00000000E+00  0.00000000E+00  0.00000000E+00
  0.00000000E+00  0.00000000E+00  0.00000000E+00
  0.00000000E+00  0.00000000E+00  0.00000000E+00
  0.00000000E+00  0.00000000E+00  0.00000000E+00
  0.00000000E+00  0.00000000E+00  0.00000000E+00
  0.00000000E+00  0.00000000E+00  0.00000000E+00
  0.00000000E+00  0.00000000E+00  0.00000000E+00
  0.00000000E+00  0.00000000E+00  0.00000000E+00
  0.00000000E+00  0.00000000E+00  0.00000000E+00
  0.00000000E+00  0.00000000E+00  0.00000000E+00
  0.00000000E+00  0.00000000E+00  0.00000000E+00
  0.00000000E+00  0.00000000E+00  0.00000000E+00
  0.00000000E+00  0.00000000E+00  0.00000000E+00
  0.00000000E+00  0.00000000E+00  0.00000000E+00
  0.00000000E+00  0.00000000E+00  0.00000000E+00
  0.00000000E+00  0.00000000E+00  0.00000000E+00
  0.00000000E+00  0.00000000E+00  0.00000000E+00
  0.00000000E+00  0.00000000E+00  0.00000000E+00
  0.00000000E+00  0.00000000E+00  0.00000000E+00
  0.00000000E+00  0.00000000E+00  0.00000000E+00
  0.00000000E+00  0.00000000E+00  0.00000000E+00
  0.00000000E+00  0.00000000E+00  0.00000000E+00
  0.00000000E+00  0.00000000E+00  0.00000000E+00
  0.00000000E+00  0.00000000E+00  0.00000000E+00
  0.00000000E+00  0.00000000E+00  0.00000000E+00
  0.00000000E+00  0.00000000E+00  0.00000000E+00
  0.00000000E+00  0.00000000E+00  0.00000000E+00
  0.00000000E+00  0.00000000E+00  0.00000000E+00
  0.00000000E+00  0.00000000E+00  0.00000000E+00
  0.00000000E+00  0.00000000E+00  0.00000000E+00
  0.00000000E+00  0.00000000E+00  0.00000000E+00
  0.00000000E+00  0.00000000E+00  0.00000000E+00
  0.00000000E+00  0.00000000E+00  0.00000000E+00
  0.00000000E+00  0.00000000E+00  0.00000000E+00
  0.00000000E+00  0.00000000E+00  0.00000000E+00
  0.00000000E+00  0.00000000E+00  0.00000000E+00
  0.00000000E+00  0.00000000E+00  0.00000000E+00
  0.00000000E+00  0.00000000E+00  0.00000000E+00
  0.00000000E+00  0.00000000E+00  0.00000000E+00
  0.00000000E+00  0.00000000E+00  0.00000000E+00
  0.00000000E+00  0.00000000E+00  0.00000000E+00
  0.00000000E+00  0.00000000E+00  0.00000000E+00
  0.00000000E+00  0.00000000E+00  0.00000000E+00
  0.00000000E+00  0.00000000E+00  0.00000000E+00
  0.00000000E+00  0.00000000E+00  0.00000000E+00
  0.00000000E+00  0.00000000E+00  0.00000000E+00
  0.00000000E+00  0.00000000E+00  0.00000000E+00
  0.00000000E+00  0.00000000E+00  0.00000000E+00
  0.00000000E+00  0.00000000E+00  0.00000000E+00
  0.00000000E+00  0.00000000E+00  0.00000000E+00
  0.00000000E+00  0.00000000E+00  0.00000000E+00
  0.00000000E+00  0.00000000E+00  0.00000000E+00
  0.00000000E+00  0.00000000E+00  0.00000000E+00
  0.00000000E+00  0.00000000E+00  0.00000000E+00
  0.00000000E+00  0.00000000E+00  0.00000000E+00
  0.00000000E+00  0.00000000E+00  0.00000000E+00
  0.00000000E+00  0.00000000E+00  0.00000000E+00
  0.00000000E+00  0.00000000E+00  0.00000000E+00
  0.00000000E+00  0.00000000E+00  0.00000000E+00
  0.00000000E+00  0.00000000E+00  0.00000000E+00
  0.00000000E+00  0.00000000E+00  0.00000000E+00
  0.00000000E+00  0.00000000E+00  0.00000000E+00
  0.00000000E+00  0.00000000E+00  0.00000000E+00
  0.00000000E+00  0.00000000E+00  0.00000000E+00
  0.00000000E+00  0.00000000E+00  0.00000000E+00
  0.00000000E+00  0.00000000E+00  0.00000000E+00
  0.00000000E+00  0.00000000E+00  0.00000000E+00
  0.00000000E+00  0.00000000E+00  0.00000000E+00
  0.00000000E+00  0.00000000E+00  0.00000000E+00
  0.00000000E+00  0.00000000E+00  0.00000000E+00
  0.00000000E+00  0.00000000E+00  0.00000000E+00
  0.00000000E+00  0.00000000E+00  0.00000000E+00
  0.00000000E+00  0.00000000E+00  0.00000000E+00
  0.00000000E+00  0.00000000E+00  0.00000000E+00
  0.00000000E+00  0.00000000E+00  0.00000000E+00
  0.00000000E+00  0.00000000E+00  0.00000000E+00
  0.00000000E+00  0.00000000E+00  0.00000000E+00
  0.00000000E+00  0.00000000E+00  0.00000000E+00
  0.00000000E+00  0.00000000E+00  0.00000000E+00
  0.00000000E+00  0.00000000E+00  0.00000000E+00
  0.00000000E+00  0.00000000E+00  0.00000000E+00
  0.00000000E+00  0.00000000E+00  0.00000000E+00
  0.00000000E+00  0.00000000E+00  0.00000000E+00
  0.00000000E+00  0.00000000E+00  0.00000000E+00
  0.00000000E+00  0.00000000E+00  0.00000000E+00
  0.00000000E+00  0.00000000E+00  0.00000000E+00
  0.00000000E+00  0.00000000E+00  0.00000000E+00
  0.00000000E+00  0.00000000E+00  0.00000000E+00
  0.00000000E+00  0.00000000E+00  0.00000000E+00
  0.00000000E+00  0.00000000E+00  0.00000000E+00
  0.00000000E+00  0.00000000E+00  0.00000000E+00
  0.00000000E+00  0.00000000E+00  0.00000000E+00
  0.00000000E+00  0.00000000E+00  0.00000000E+00
  0.00000000E+00  0.00000000E+00  0.00000000E+00
  0.00000000E+00  0.00000000E+00  0.00000000E+00
  0.00000000E+00  0.00000000E+00  0.00000000E+00
  0.00000000E+00  0.00000000E+00  0.00000000E+00
