
1.0
 11.635600   0.000000   0.000000
  0.000000   5.817800   0.000000
  0.000000   0.000000  32.392800
Mn H  O  Zn S
16 21 46 9  1
Selective dynamics
Cartesian
    1.454450   0.000012   9.094041 T T T
    4.363351   0.000017   9.094041 T T T
    2.908918   1.454450   6.747804 T T T
    2.908912   4.363351   6.747804 T T T
    1.454450   2.908889   4.401566 F F F
    4.363351   2.908883   4.401566 F F F
    5.817784   1.454450   2.055329 F F F
    5.817789   4.363351   2.055329 F F F
    7.272251   0.000012   9.094041 T T T
   10.181152   0.000017   9.094041 T T T
    8.726719   1.454450   6.747804 T T T
    8.726713   4.363351   6.747804 T T T
    7.272251   2.908889   4.401566 F F F
   10.181152   2.908883   4.401566 F F F
   11.635585   1.454450   2.055329 F F F
   11.635590   4.363351   2.055329 F F F
    7.272251   0.400000  10.094041 T T T
    7.588673   8.489671  11.821335 T T T
    7.266148   8.802712  13.391310 T T T
    2.518155   7.568153  13.233088 T T T
    1.254760   8.548735  12.902745 T T T
    6.744549   4.394350  15.431232 T T T
    5.129508   4.245359  15.621698 T T T
    6.929104   6.136480  16.717104 T T T
    5.455072   6.838423  16.753685 T T T
    8.338493   4.149752  12.659183 T T T
    9.722627   4.757274  13.277188 T T T
   11.292847   7.097112  16.573802 T T T
   11.177851   8.700862  16.288140 T T T
    4.372955   7.061604  14.565665 T T T
    5.658821   6.059384  14.471107 T T T
    6.526229   5.593243  12.487800 T T T
    5.916474   7.006126  11.941178 T T T
   10.332719   8.065300   9.910965 T T T
   11.290449   6.744633   9.837292 T T T
    8.136812   6.142516  14.876168 T T T
    8.773580   7.278970  13.891365 T T T
    5.817795   1.315597   9.146869 T T T
    5.817795   4.502222   9.146832 T T T
    2.908906   1.315597   9.041213 T T T
    2.908906   4.502222   9.041251 T T T
    1.593321   0.000006   6.800594 T T T
    4.224497   0.000006   6.800632 T T T
    1.593321   2.908895   6.695013 T T T
    4.224497   2.908895   6.694976 T T T
    2.908906   1.593304   4.454394 F F F
    2.908906   4.224480   4.454357 F F F
    5.817795   1.593304   4.348738 F F F
    5.817795   4.224480   4.348776 F F F
    1.315579   2.908895   2.108119 F F F
    4.502204   2.908895   2.108157 F F F
    1.315579   0.000006   2.002538 F F F
    4.502204   0.000006   2.002501 F F F
   11.635596   1.315597   9.146869 T T T
   11.635596   4.502222   9.146832 T T T
    8.726707   1.315597   9.041213 T T T
    8.726707   4.502222   9.041251 T T T
    7.411122   0.000006   6.800594 T T T
   10.042298   0.000006   6.800632 T T T
    7.411122   2.908895   6.695013 T T T
   10.042298   2.908895   6.694976 T T T
    8.726707   1.593304   4.454394 F F F
    8.726707   4.224480   4.454357 F F F
   11.635596   1.593304   4.348738 F F F
   11.635596   4.224480   4.348776 F F F
    7.133380   2.908895   2.108119 F F F
   10.320005   2.908895   2.108157 F F F
    7.133380   0.000006   2.002538 F F F
   10.320005   0.000006   2.002501 F F F
    6.889726   8.801997  12.464798 T T T
    2.222650   8.520169  13.152727 T T T
    5.988454   3.744896  15.512759 T T T
    6.439961   7.004373  16.804379 T T T
    8.742777   4.917142  13.156963 T T T
   10.797112   7.934237  16.805291 T T T
    4.794622   6.321597  14.041544 T T T
    6.024362   6.031995  11.742318 T T T
   11.277494   7.744594   9.842684 T T T
    7.923526   6.876165  14.230891 T T T
    3.363351   5.000000  11.887753 T T T
    5.363351   5.000000  11.887753 T T T
    3.363351   5.000000  10.087753 T T T
    5.363351   5.000000  10.087753 T T T
    5.817795   2.908895   7.920923 T T T
    5.817795   0.000006   5.574685 T T T
    2.908906   0.000006   3.228448 F F F
    2.908906   2.908895   0.882210 F F F
   11.635596   2.908895   7.920923 T T T
   11.635596   0.000006   5.574685 T T T
    8.726707   0.000006   3.228448 F F F
    8.726707   2.908895   0.882210 F F F
    2.223908   0.500000  10.987753 T T T
    4.363351   5.000000  10.887753 T T T



